N=96, ave_E=-6.551220937499999 
1
17.04 0 0
0 14.757072880486835 0
0 0 10
C
96
C
2.4638476799999998 0.6315171282621297 10.0
3.8547887999999997 0.641680324354921 10.0
1.76740584 1.8471428124505371 10.0
1.75118376 14.149878359746323 10.0
4.59405216 1.8866770106973612 10.0
4.5249038399999995 14.186712013656019 10.0
0.351504528 1.8458441900370541 10.0
2.4746339999999996 3.0737211961308417 10.0
2.43048336 12.904351894487473 10.0
0.34212571199999997 14.154157910881665 10.0
6.0341196 1.916929010102359 10.0
3.89350368 3.082383597911688 10.0
3.8081843999999996 12.87606258577558 10.0
5.927483280000001 14.31889111544654 10.0
16.682108879999998 0.6103481072150713 10.0
16.68161472 3.0755658302409024 10.0
1.75305816 4.289954871721925 10.0
1.7092823999999998 11.673523473817589 10.0
16.694445839999997 12.92026001905264 10.0
6.7348044 0.7434008277201167 10.0
6.7495951199999995 3.1020842902071375 10.0
4.601515679999999 4.2929948287353055 10.0
4.4511888 11.560602352136105 10.0
6.14460696 12.765738708921061 10.0
7.26931512 13.460693542081826 10.0
15.273071279999998 0.6024147048345216 10.0
15.261620399999998 3.0762594126662854 10.0
0.34537524 4.295400231614825 10.0
2.4278932799999997 5.500566102545543 10.0
2.36968464 10.432822571390657 10.0
0.322453032 11.683218870700069 10.0
8.24066328 0.7299630371551453 10.0
8.19080424 3.1063933554882395 10.0
6.07070448 4.271759400860285 10.0
3.83531208 5.498308270394828 10.0
3.72915288 10.404488991460124 10.0
5.8269132 11.531309562468337 10.0
8.545713359999999 12.987404700658853 10.0
14.580565679999998 1.8375212009324597 10.0
14.56231584 14.15367092747661 10.0
14.55742536 4.296138085258849 10.0
16.66813608 5.527674845426998 10.0
1.664639304 6.750563960887181 10.0
1.639786464 9.215186973875928 10.0
16.655321999999998 10.462410502516034 10.0
8.90517216 1.9155418452515935 10.0
9.185769839999999 14.286425555109469 10.0
8.91410112 4.30130306076702 10.0
6.81944208 5.427002094236316 10.0
4.43919264 6.74113419131655 10.0
4.41024168 9.181850746238908 10.0
6.788054399999999 10.509397022567505 10.0
9.0328188 11.665141456421471 10.0
13.177031999999999 14.135327885886165 10.0
13.154692559999999 4.295975757457164 10.0
15.263392559999998 5.528634055164229 10.0
0.305900376 6.747730602894127 10.0
2.27956008 7.978411452835206 10.0
0.294730656 9.230534329671634 10.0
15.272270399999998 10.464889690759955 10.0
10.34186568 1.8885216448074222 10.0
10.472443199999999 14.225552629477459 10.0
10.32158808 4.296610311591025 10.0
8.24315112 5.489645868613984 10.0
6.117257759999999 6.543964940560365 10.0
3.5642397599999995 7.974795969979488 10.0
5.628908399999999 7.955272362558603 10.0
6.166793039999999 9.343558750863282 10.0
8.251858559999999 10.485077366460462 10.0
10.397739839999998 11.64293206173634 10.0
12.47798304 0.616884014793839 10.0
12.477897839999999 12.910800735336247 10.0
12.42797064 3.088286427063882 10.0
12.446424959999998 5.526745149835526 10.0
14.556385919999999 6.763461642584726 10.0
16.644740159999998 7.992297858415746 10.0
14.56141272 9.227804271188745 10.0
14.55703344 11.675545192802215 10.0
11.10893832 0.6615817128415455 10.0
11.025732 3.077484249715366 10.0
11.11367544 12.920569917583128 10.0
11.04718536 5.524856244506825 10.0
9.016477440000001 6.749899892607559 10.0
7.106957999999999 7.952616089440116 10.0
9.01596624 9.220735633278991 10.0
11.078726399999999 10.440038780029216 10.0
13.161883439999999 11.697370903592455 10.0
13.15152312 6.764125710864349 10.0
15.259149599999999 7.994083464234284 10.0
13.157435999999999 9.229383277986956 10.0
10.37546856 6.744956273192595 10.0
8.40296928 7.979311634280918 10.0
10.38599928 9.226874575597273 10.0
12.456257039999999 10.455017209002909 10.0
12.45370104 7.995426357866409 10.0
11.073614399999999 7.9908073940548165 10.0
