N=241, ave_E=-5.9669460580912865 
1
29.82 0 0
0 22.13560932073025 0
0 0 10
C
241
C
2.184812994 1.1865859783205412 5.0
3.63866622 1.1786813522321085 5.0
1.518655068 22.022651306366566 5.0
4.498317180000001 2.302590352761002 5.0
4.3040100599999995 22.0650852694344 5.0
29.9798352 -0.4513760639027388 5.0
2.256729888 20.832950847814594 5.0
4.24052328 3.7557045622296603 5.0
5.944617 2.126021237892333 5.0
3.6138858000000003 20.871466808032668 5.0
5.7060271799999995 -0.19455385472957593 5.0
28.85761914 0.3725201692585694 5.0
1.56803997 19.59756249162464 5.0
5.68730022 4.2594888947601595 5.0
3.0260441399999998 4.661250203931414 5.0
6.56344164 0.9342643812344692 5.0
6.64944252 3.307591287140797 5.0
4.3559565000000005 19.68515309770677 5.0
6.24898974 20.69699393536667 5.0
28.97135262 1.8145156621654244 5.0
27.7156026 21.49635505915688 5.0
2.177313264 18.289812828565218 5.0
6.0461541 5.54262376025493 5.0
1.478421924 4.903723668430693 5.0
3.66777054 5.957113044785604 5.0
8.02539696 0.9966580232268115 5.0
8.0552766 3.5376909460297874 5.0
4.90088718 18.390706935849106 5.0
7.5972712200000005 20.629303242063877 5.0
0.406756728 2.4944396787437713 5.0
27.710980499999998 2.501744429819612 5.0
28.308931140000002 20.1679307369919 5.0
26.242106940000003 21.502907199515818 5.0
1.2516259140000001 17.198859323193027 5.0
5.0525218800000005 6.379416199406496 5.0
7.37475438 5.9453590362362965 5.0
0.947166696 6.282772129112187 5.0
30.263423399999997 3.9090600636036794 5.0
3.0678816 7.2103427020880675 5.0
8.8040568 2.309231035557221 5.0
8.45474532 5.001496654800358 5.0
4.38452406 16.905407550428105 5.0
6.33159114 18.005060350263342 5.0
8.302633499999999 19.488611022548003 5.0
26.77606386 1.3959711340071927 5.0
27.1877886 3.905806129033532 5.0
27.56286456 18.963709318725527 5.0
25.46335764 20.30869107666242 5.0
1.616923896 15.825942426293375 5.0
-0.147671622 17.600731310410882 5.0
5.23039818 7.755144318689881 5.0
7.84319676 7.304795347059624 5.0
1.774292982 7.429772997284467 5.0
3.98371344 8.187806938472875 5.0
10.2038076 2.2673061915037582 5.0
9.87492282 5.831670546765026 5.0
4.15768332 15.460129346658988 5.0
5.9352237 16.56730825366327 5.0
7.68404742 18.17712044151338 5.0
9.642326820000001 19.60356124175056 5.0
25.37422566 1.5478590444832474 5.0
25.775274839999998 3.987530798645668 5.0
27.86019978 5.21132009555156 5.0
28.22218476 17.66968373344496 5.0
26.1272403 19.04673998928759 5.0
24.0344727 20.346675782256792 5.0
0.80257548 14.657248660986781 5.0
2.859207204 15.119440183603627 5.0
5.98558968 8.892272705105116 5.0
9.248076600000001 7.135081630397584 5.0
7.30423008 8.637624655479433 5.0
1.383993912 8.80176019859265 5.0
3.7939986 9.502839216998817 5.0
10.71900774 1.0836111237605042 5.0
11.081231279999999 3.337673580207669 5.0
10.50224616 4.540456183868189 5.0
11.26268598 6.494410689827689 5.0
4.7071764599999995 13.903221265085426 5.0
6.69035556 15.34564397525217 5.0
8.451822960000001 16.958488741579217 5.0
10.35326544 20.81280744333273 5.0
10.3157817 18.46758390702 5.0
23.98813242 0.7102055301291056 5.0
24.95856468 2.8960239030404593 5.0
25.07763594 5.1740658650647715 5.0
27.072355379999998 6.484294716368116 5.0
27.41045454 16.492622707815126 5.0
25.36158198 17.873818322600734 5.0
23.30441946 19.133312357340966 5.0
23.32362354 21.559906393516698 5.0
1.5828456000000002 13.45355849734411 5.0
-0.5950700280000001 14.615788664729052 5.0
3.016293 13.634140798182628 5.0
5.18205996 10.280330358780146 5.0
8.204853720000001 9.608337531021418 5.0
0.0106792875 8.9348616174382 5.0
2.46420552 9.909182597299463 5.0
12.11374878 0.9892558754699594 5.0
9.84048072 22.080934365708046 5.0
12.51942006 3.2642718997001277 5.0
12.601932 5.707334829210484 5.0
11.52543 7.979267363062275 5.0
6.1204655400000005 14.0413696028561 5.0
4.88866098 11.983886852103547 5.0
8.05450128 15.492248115783367 5.0
9.756149760000001 17.217829540380894 5.0
11.71252068 20.783854066341217 5.0
11.656578360000001 18.376805773195688 5.0
23.05106874 1.83802367926404 5.0
23.605154159999998 3.0134533104869337 5.0
23.69664192 5.250500124049253 5.0
25.652028780000002 6.427804641381612 5.0
27.6836952 7.723733889063765 5.0
27.88310154 15.163423639323918 5.0
26.008616340000003 16.635884371338896 5.0
23.96669184 17.93666131746229 5.0
21.90156738 19.110933256317708 5.0
21.882065100000002 21.527189962940657 5.0
1.280282934 12.103463413654131 5.0
28.97123334 13.144124814649622 5.0
3.4497565199999998 12.220671465007397 5.0
6.470582159999999 11.46175209944616 5.0
7.915361160000001 10.904045422610363 5.0
9.492988259999999 9.204451203355374 5.0
29.18888952 10.18041021830637 5.0
29.07670668 7.76329022291991 5.0
2.374113336 11.29316729885948 5.0
13.14692232 2.0353714906020786 5.0
12.5181378 21.923904353186785 5.0
13.27890564 4.437857634666604 5.0
13.45368066 6.817634857128993 5.0
12.90439626 8.026305532868827 5.0
10.83590214 9.183289560844754 5.0
6.9428415 12.881928522245573 5.0
8.89005768 14.157515144961973 5.0
11.4304533 16.688633528350195 5.0
10.20568626 15.778550086737692 5.0
12.442931759999999 19.589416587394613 5.0
12.83718198 17.1367910746577 5.0
21.73374042 1.7586498113617657 5.0
22.92400572 4.18675128253224 5.0
23.1690963 6.4877257358128295 5.0
24.37910244 7.249367781320515 5.0
26.89769964 8.955934717511536 5.0
26.91714228 14.135999332702223 5.0
23.269112579999998 16.75884768111555 5.0
21.2014236 17.864941943263123 5.0
21.206850839999998 20.31041765418944 5.0
21.13131678 0.593911679440785 5.0
0.0362972022 11.653712103475533 5.0
27.270211080000003 12.797968156092042 5.0
28.302460200000002 11.635273140911366 5.0
9.06963372 11.777649380062302 5.0
27.44182518 10.307844921165815 5.0
14.79841356 1.9730110520237174 5.0
13.860604380000002 21.598687981046616 5.0
14.75675502 4.412224599073198 5.0
14.79292668 6.815709059118089 5.0
13.803678 9.143246243583553 5.0
11.48559048 10.377926260275245 5.0
8.30254404 12.978063473525504 5.0
10.45110486 14.058369750814425 5.0
11.655296100000001 15.054804204387095 5.0
13.75706934 20.235599294685368 5.0
13.738103820000001 18.167956299254598 5.0
13.67071062 16.078620406689513 5.0
21.5206467 4.326803282704501 5.0
21.77355012 6.642741407885903 5.0
24.3741225 8.565396162265891 5.0
25.51527426 9.313867520227744 5.0
25.604197499999998 14.34349853447475 5.0
23.973789000000004 15.65425864040179 5.0
21.90019566 16.676813112972926 5.0
19.838261940000002 17.833819276558174 5.0
19.836860400000003 20.30886816153699 5.0
19.79803476 0.632195215760988 5.0
26.21488128 11.637398159406155 5.0
10.643652600000001 11.61205288673392 5.0
15.488448360000001 3.199414564390388 5.0
15.706193999999998 0.7955272362558603 5.0
15.21482004 -0.394604866677862 5.0
15.4880607 5.622599716730728 5.0
15.354496919999999 8.187607717988987 5.0
12.96033858 10.394218068735304 5.0
11.34967092 12.806468230071204 5.0
13.01848758 14.974208450850316 5.0
15.019528860000001 19.163704548938327 5.0
15.038106719999998 16.347568059936386 5.0
21.12594918 7.84908784464706 5.0
23.21633118 9.394219782061993 5.0
25.14657978 10.664161824401608 5.0
23.43458376 14.397708641701218 5.0
21.24057726 15.376877320003722 5.0
19.15243176 16.571646833090135 5.0
19.15347546 19.060264846582555 5.0
19.13931096 21.569756739664424 5.0
19.105882740000002 1.927289950971749 5.0
16.94733222 3.2082466725093597 5.0
17.06834178 0.777902864114695 5.0
15.8475408 20.437365373643825 5.0
16.877791979999998 5.625809380082234 5.0
16.86526758 8.084389371726424 5.0
13.60042488 11.583143780961047 5.0
12.875083199999999 12.756131854475862 5.0
13.63778934 13.879049179707188 5.0
15.77454144 17.71515027498974 5.0
15.72671016 15.209775605241528 5.0
19.70940972 7.894820013503689 5.0
21.85370628 9.074692261517253 5.0
23.71232724 10.8002958217241 5.0
22.05579642 14.194813646667404 5.0
19.85293338 15.337475935412822 5.0
17.780025900000002 16.549157054020274 5.0
17.80692354 19.059224472944482 5.0
17.80587984 21.60054737222956 5.0
17.7105453 1.970936945430365 5.0
19.7800533 3.165037963115294 5.0
17.62603542 4.433452648411778 5.0
17.15389536 20.35023961535743 5.0
17.54689314 6.810573597755679 5.0
17.67989034 9.22012321475445 5.0
15.00575202 11.608732545335812 5.0
15.026775120000002 13.949241196863222 5.0
17.11059672 17.768541364671343 5.0
17.077914 15.294687802595849 5.0
18.942767340000003 6.749899892607558 5.0
19.0427538 9.126998706342139 5.0
21.14482524 10.210691731857128 5.0
23.036278019999997 12.069972236751868 5.0
21.78956346 12.816252169390966 5.0
19.098904859999998 14.111982196589231 5.0
19.06920414 4.418267620417758 5.0
17.11912524 10.45318733196573 5.0
15.723489599999999 10.458854047951837 5.0
15.711144119999998 12.805848433010222 5.0
17.74233342 14.132988889834603 5.0
19.773642000000002 10.267978688779179 5.0
20.54726226 12.217417530437249 5.0
19.29834102 12.705906156927126 5.0
17.95572534 11.733466703858126 5.0
17.09422554 12.888746289916357 5.0
