N=186, ave_E=-6.858213978494623 
1
25.757171634532227 0 0
0 19.82787996901409 0
0 0 20
C
186
C
1.5397585688780098 19.287649551378333 8.5755558531973
1.3775321747722353 0.9042504659868876 8.848182817751542
1.2249338114234491 18.29002959861736 9.542598583532307
0.05891412110794922 1.233789831071902 9.35734042886515
2.5675418371764223 1.6257771041193259 9.24899101203632
2.35544698306903 17.450576644369207 10.069532270844395
25.818988846455103 18.67816034901081 10.34627070880509
25.125477000195325 0.16036947941978347 10.098433510377976
25.091374504951204 2.321368875252294 8.740438029364835
3.7422079524379184 0.9237234269044564 10.039240385893926
2.6128074906069494 3.186003237061091 9.505837174251095
3.8028145772939723 18.02661621322901 10.048853978123717
2.4988474604271245 15.773772491149625 10.087610661263941
25.113705972758343 17.686964629359792 11.11747428673575
23.661284821458707 0.24403956387062853 10.24789766127132
23.623988436931903 2.4914722575064654 8.996981877358547
0.07872164366662085 3.163082207816911 7.800543116081251
4.462584528712515 19.408916865268825 9.863112120702862
4.563732941721324 2.0730246786403925 10.529110349703739
3.902623617377785 3.333958877389874 10.189551016606242
2.0203178472149674 4.413388662903001 8.920556842273925
4.690587012021394 16.825363933186257 10.051937583178557
1.777201055590945 14.451788249975548 10.2163965194366
4.002587200491405 15.59712590850568 10.121893093932435
25.750345984049076 16.46715345366605 11.484362825417303
23.64425933100828 17.652781364293215 11.025207986467446
22.93972341528892 18.840689481116815 10.545314391952694
22.929806904209624 1.4636286673087224 9.803132979244044
22.927308458561075 3.6620309793571812 8.432077523880995
0.7271635910002966 4.401888492520974 8.225173670985761
6.013346561312797 19.40328574735762 10.00072555413055
6.009225413851272 2.031762860424874 10.624278866494244
4.691952142118025 4.538859487346923 10.114093387029019
2.793906164369345 5.657191573359255 8.966931843784927
6.080186421704409 16.864861070084533 9.72168952808978
2.5160970382707712 13.146994780734607 10.167119301403396
0.29079846775386886 14.281565900441562 10.362656139586676
4.720465331117452 14.38576140967873 10.16536587892124
25.18518212404417 15.238023174386864 11.112818647731384
22.965841187326337 16.37665900948747 11.016682725433483
21.522744132158397 18.71055910488018 10.102363595251788
21.45000587946248 1.3038476793664195 9.630027856263606
21.781577949913814 4.288235084538584 9.001214276453425
23.630968630444862 4.450764216644593 7.465155719234417
-0.005439734349011765 5.685327335035287 8.182305514439086
6.711752270183138 0.7490556666814175 10.501902069808107
6.77995726067138 18.141340326729722 9.789770690673077
6.776634585530526 3.229485777833139 10.711587213537118
6.106149650712017 4.493136396138376 10.509459925334674
4.1572075018135015 5.691771396025216 9.473368626908972
2.1350068053520492 6.967298914431892 8.685779618196722
6.863281710909092 15.60475964229375 9.625855920012942
1.885782988333479 11.892346019935301 9.754218538276117
3.97142102281362 13.178699560805061 10.267548085640392
25.39755000417089 13.047161405090621 9.892799377211205
6.168765334955564 14.350110881494444 9.922607559407979
23.74270324099546 15.145149384612003 11.063662355386612
21.508526173416136 16.32411512756958 10.820057556054373
20.960619618406366 19.81100644316046 9.439932674059449
20.820629390572684 17.50300155900728 10.317671783492564
20.513397847315982 2.294065884534961 10.106595994346666
20.502244991998232 3.5946161874625338 9.531050180287714
21.27441924042987 5.6203712002567965 8.436430848664298
24.292799155594164 5.6712495402572864 7.875758894281621
0.7192561393084952 6.93033974616965 8.310970446923324
8.152453908389065 0.6784406549597706 10.715396372722505
8.26557940620793 18.148121461679125 9.89576205657762
8.199022874704298 3.1853885727820517 10.859539793325148
6.914049096200755 5.686398040553613 10.344698674855561
4.906277567288968 6.90420660037049 9.487154155389426
2.7856123551030256 8.212747538925575 9.05514713349099
8.352175017243226 15.65799750001055 9.561886230836098
2.67032325486686 10.688317836696891 9.568053440945775
0.46059231888586877 11.873033664845483 9.527724723856025
4.7648964521870205 11.918776583933997 10.238828234639445
23.91700202144634 12.910091270864827 9.935969847978946
6.9311776153377185 13.158237188677038 10.132655480202263
23.100654223661476 13.942826399050926 10.599670488899747
20.820629390572684 15.08084756987249 10.873627636026669
19.364782535445652 17.556021310044425 10.181086218416489
19.466600634916958 1.9076383490308488 11.087726567383186
19.289365536899744 4.328267574196024 9.096564181776564
19.801315080307706 5.602863182244158 8.444714258321412
21.999303321740513 6.855548982926528 8.287027160615168
23.514649243343314 6.869904368024095 8.122144984447633
25.672713868742594 8.18730836892533 8.194398083281591
8.867112392560795 1.9390258830217981 11.057616070965352
8.911826842518344 19.3126921637792 10.407398644303946
9.036800639289094 16.88966574792577 9.724289430390918
8.99126195983924 4.4041885265973795 10.827192171671456
8.322786084408225 5.684613531356402 10.72779125578607
6.281916589946065 6.89252797906874 9.927988752542891
4.2533075091819414 8.198074907748504 9.307881822299315
2.0565942477450427 9.445526148119058 9.110107858880166
9.115385769946052 14.36646888246888 9.748293179543293
4.098867508061286 10.694623102527038 9.90392454054631
25.534372099893524 10.673090024880688 9.1730496797054
6.2185281905534815 11.965729003700623 10.320392611482134
23.25911234355712 11.716274445810457 9.454383293826243
8.39436526438059 13.175408132730205 10.073825132783487
21.632521197664776 13.875292639876465 10.54525392910848
19.301883522314128 15.058858450986854 10.656142785394238
18.589620455104406 16.344359393017946 10.455103828387617
18.711606419965552 18.888395360322264 10.194629895520091
18.006890204044748 1.900173152222515 10.857181742400861
17.95341831573146 4.320732979807799 9.737228479052398
19.076997656773024 6.817618248545805 8.583113708723864
21.26934507761787 8.089041395798896 8.39398593202711
24.19814154983726 8.176125444622807 8.198388630999617
10.337048420571914 1.8904713705536764 11.365251022318649
10.336018133706535 19.25755082958537 10.738311790679049
10.447675472742231 16.898984851511205 9.917105440584638
10.41898198354136 4.346013526768291 10.982702606986045
9.063304768901027 6.955957367089616 10.839224277669743
6.992453926656271 8.206937970094653 10.136646027920293
4.904757894162531 9.449967593232117 9.711713158794716
10.56149641419523 14.397400375220542 9.993288624292408
24.062761855726162 10.548432143515496 9.086708738169925
6.93692146461222 10.722818347842976 10.396817646566753
21.81645316030697 11.676638513752398 9.341317775148834
9.108070733201846 11.92175076592935 10.519496757473952
21.002809865543732 12.682030995461227 9.97472653111917
18.696847560618963 13.72392660419301 10.411086877800905
17.04058415300364 16.568830822147152 10.838801037760255
17.536126378080404 19.164141687051345 10.970428649610906
17.16141104514123 0.6959169483644597 11.290700335404612
17.28718331423265 3.1300291319085645 10.406189387419694
17.170271512183508 5.561066011269475 9.569746400583725
17.770877240357528 6.825906302372854 9.151887684231017
19.7732655203977 8.069292827349758 8.411580619692955
21.96996590324878 9.366987915561792 8.481777981823683
23.429006647658493 9.403788460784282 8.509228113096167
10.91601812457293 0.5376884834237303 11.48883707588903
11.13799342971933 3.039554515609953 11.164635305221513
11.103375791042518 18.14857750291841 10.15272914448082
11.207460521617662 15.641976572995588 10.047040092797335
11.175289814246133 5.6162073454633035 11.237432569653382
10.493033851990642 6.913961917315245 11.025752152065358
8.402349987587296 8.18431435905001 10.534854319903932
6.274189438455705 9.477409379109233 10.06390922633263
11.330064658598037 13.219505337781293 10.344335897790288
8.399774270423842 10.728727056073742 10.67240729048741
21.20307187500222 10.572225599478314 8.627312047843215
10.594594379745603 11.942332105337186 10.600516968718726
19.56458091581472 12.571193146434439 10.066569591477982
15.954275439317243 15.469612812424948 11.115781327097796
16.598256244523817 18.02760760722746 11.283565719787536
15.804085371516285 0.9767015393936651 11.716177370128094
15.815470041378745 3.2555990957523306 10.719024143375258
15.779590301291844 5.555018507878926 9.793700775546888
16.998780263440793 8.085492205284442 9.191007144436515
19.060023680665868 9.308634464812984 8.456383587254429
12.170212082973208 0.3518516784141457 12.185913206815147
12.635850231782282 3.037849317932618 11.355939744309914
12.532383673326366 18.207069748827003 10.134167051307575
12.690944821908547 15.707388749013365 10.277645380623884
12.50000690858176 5.548415823849244 11.855907003103223
11.23051319023057 8.128439393297326 10.911477376503697
9.126384082233995 9.457680638540062 10.695806411197648
12.803941533869239 13.203940452005615 10.312290590357652
19.81937085762351 10.553230490467998 8.36581024662408
11.33565396484273 10.676024551116102 10.714247578682468
15.078016460310455 14.454008972532078 10.321783256899021
15.22666109781334 18.29024770529702 11.681048457640625
15.137464012442955 2.1752175720006908 11.368636941594545
14.794275457584448 19.705145392005893 11.860018476509676
15.090379902695032 4.3904279778988835 10.26978521087625
15.716614016645412 8.159628648488587 9.894129559783881
17.636836919171426 9.305898217377258 8.772967039551173
13.40982748222834 0.4594159444580503 11.42208609587841
13.693826056670693 1.9257768936265027 11.244688110958883
13.223551616967404 17.011785660654926 10.64513854774756
13.185121916888683 19.47474542676595 10.146622397215356
13.532611919410154 14.46467637195541 10.26966428518783
10.580685507062956 9.431289730301305 10.828038651490427
13.520660591771732 11.958095269912555 10.334540917027859
12.794668952080809 10.682468612106032 10.543984209380021
15.661055797429727 13.216491500026 9.834150418325066
14.24029021006893 17.211492067702835 11.649426390117476
14.958657726956032 9.387965812569009 10.051756194645915
17.003468068678277 10.608609759221455 9.111740355673906
14.985445185455946 11.937989799623972 10.119716431540784
13.568620445355231 9.445109762639706 10.49815337346693
16.958109689429865 13.158673402036358 9.113735629532918
15.673857111732088 10.641067998730732 9.76921332364082
17.600982936256155 11.876979412959317 8.748056347735613
