N=96, ave_E=-6.76711 
1
17.04 0 0
0 14.757072880486835 0
0 0 10
C
96
C
2.2338928799999995 0.8526459625470727 10.0
3.6122073599999998 1.084602061204429 10.0
1.5719468159999999 1.9753670187090873 10.0
1.539732696 14.2904099647872 10.0
4.42828704 2.242765179303509 10.0
4.215900479999999 14.704375373230617 10.0
0.21356061599999998 1.9418684632703822 10.0
2.3175763199999997 3.1512991282635614 10.0
2.2059984 13.095559287799942 10.0
0.204870216 14.23344766346852 10.0
5.8973736 2.1195583778243243 10.0
3.44794176 13.356862777294722 10.0
5.46878352 13.912702684411139 10.0
16.55236632 0.6851030113057535 10.0
16.59114936 3.1412790757777107 10.0
1.7133038399999998 4.371413914022213 10.0
1.71500784 11.77995148343166 10.0
16.6013904 12.960989540202782 10.0
6.629855039999999 0.9198836137124349 10.0
6.71387928 3.1954375332490974 10.0
4.6413552 12.649202104383855 10.0
6.801498959999999 14.07340720807964 10.0
15.1916712 0.6554162077920781 10.0
15.20571216 3.124072328799063 10.0
0.292939752 4.3760919061253265 10.0
2.46439296 5.563726374474027 10.0
2.55058128 10.505191256796566 10.0
0.31172124 11.723756549902765 10.0
15.23144256 12.926753131120053 10.0
8.20102824 0.5328439604467544 10.0
8.15931432 3.0922560796687333 10.0
6.060190799999999 4.373966887630536 10.0
4.97890056 11.427464040608351 10.0
7.118971199999999 12.636658592435442 10.0
14.49798984 1.874059713384545 10.0
14.51618856 14.156873212291673 10.0
14.52041448 4.335849368380239 10.0
16.65757128 5.5834418238423575 10.0
3.89646864 5.54684428309875 10.0
1.7786351999999999 6.793521800042278 10.0
1.81596984 9.259443435444508 10.0
4.069935839999999 10.370562480907884 10.0
16.68912936 10.477979214404947 10.0
14.56439472 11.678157194702061 10.0
8.88111168 1.8217901612418608 10.0
9.029836799999998 13.998057593951875 10.0
8.89867992 4.291533878520138 10.0
4.6371122399999996 4.368551041883398 10.0
6.78273792 5.541930177829547 10.0
6.34636056 11.415171398898906 10.0
8.435907599999998 12.697015020516634 10.0
13.11469968 1.8538867947569193 10.0
13.143599519999999 14.132951997152404 10.0
13.11976056 4.316311003886475 10.0
15.24533016 5.577553751763043 10.0
0.35166981599999997 6.803718937402694 10.0
4.63757232 6.750903373563432 10.0
2.5171487999999997 8.01062614293331 10.0
0.378371496 9.257938214010698 10.0
4.71316176 9.13703351590087 10.0
15.287027039999998 10.453733343662307 10.0
13.182348479999998 11.65563790148644 10.0
10.30439472 1.8204472676097363 10.0
10.38974808 14.072684111508497 10.0
10.31346 4.277957371470089 10.0
8.21607456 5.512681659380423 10.0
6.096894959999999 6.73267838855603 10.0
6.964691039999999 10.260858401114344 10.0
9.09206688 11.52751699473805 10.0
12.427612799999999 0.6071635308874622 10.0
12.41249832 3.0722159746970323 10.0
12.47576784 12.88060776422277 10.0
12.419399519999999 5.526125352774546 10.0
14.55413664 6.797771837031858 10.0
16.699574879999997 8.021900546614003 10.0
3.95638128 7.96759451841381 10.0
6.181907519999999 9.093573936267838 10.0
14.59179504 9.214183492920055 10.0
12.496880399999998 10.403677352451696 10.0
11.039057279999998 0.5816382219260843 10.0
11.00939064 3.0580786988775257 10.0
11.11350504 12.846887852690859 10.0
11.0332296 5.501053085950599 10.0
8.953940639999999 6.705053148123759 10.0
6.841986 7.908492441527462 10.0
8.3642544 10.284838644545136 10.0
10.443781920000001 11.573013050428592 10.0
13.13608488 6.761867878713634 10.0
15.2796828 8.01518607845338 10.0
13.20843672 9.21557065777082 10.0
11.136100079999999 10.37130033455191 10.0
10.367562 6.696257932686989 10.0
8.28188304 7.901231961670261 10.0
9.0296664 9.108995077427945 10.0
10.43797128 9.131115929675795 10.0
11.09910624 7.907090519603814 10.0
