N=190, ave_E=-6.596055263157895 
1
25.56 0 0
0 19.676097173982445 0
0 0 10
C
190
C
2.80574676 1.2472048363477903 10.0
4.10460372 0.814084747305502 10.0
1.9416960719999998 2.3961944660419303 10.0
1.9731885479999998 19.98265076795309 10.0
4.80162492 1.962710369201923 10.0
4.67093664 19.121565727328097 10.0
0.420045372 2.1287963054475085 10.0
2.55707352 3.623451675074737 10.0
1.587166092 18.75106481754201 10.0
6.16420296 1.9002230197967893 10.0
4.05552852 3.258223959331275 10.0
3.9141817199999998 17.838093908669222 10.0
6.08693508 19.086857091913192 10.0
25.187718599999997 0.7364959933193369 10.0
25.160216039999998 3.2969071663753247 10.0
1.654514136 4.861943935593889 10.0
2.463168636 17.687060186761734 10.0
0.1858298904 18.884626165159002 10.0
6.82628364 0.6425603378010274 10.0
6.862834439999999 3.0951287898561346 10.0
4.765278599999999 4.372796159848685 10.0
6.77010276 17.856432031235375 10.0
23.762441879999997 0.8286785085794447 10.0
23.71500252 3.2604670344091087 10.0
0.1810368792 4.548425003223652 10.0
1.55399688 6.487484703622448 10.0
1.8318826439999998 16.478770735404645 10.0
25.16052276 17.698924873357644 10.0
8.220428279999998 0.6243717535733979 10.0
8.2468062 3.0815326067089126 10.0
6.16105908 4.330256437758535 10.0
4.04328528 5.568748698277686 10.0
6.0800849999999995 16.62004511311384 10.0
8.1832896 17.846220136802078 10.0
23.03781588 2.0785829054595055 10.0
23.02935552 19.331135838328183 10.0
22.94076456 4.4572853211137655 10.0
24.9436206 5.6631349364212795 10.0
0.1052108388 6.753249748151429 10.0
2.3210984879999996 7.689379423397991 10.0
2.55602556 15.328506094613632 10.0
0.41918144399999996 16.436821296229713 10.0
23.82312132 17.717813926644666 10.0
8.934012359999999 1.8519772295261845 10.0
8.90270136 19.07231645610162 10.0
8.9476614 4.3011161378438665 10.0
6.860508479999999 5.524871001579705 10.0
4.73976972 6.752147886709686 10.0
6.77508696 15.380903541387946 10.0
8.880975359999999 16.609675809903152 10.0
21.58697916 2.1266122586611966 10.0
21.61972152 19.541060119077404 10.0
21.55661388 4.450497067588741 10.0
23.585592239999997 5.651722800060369 10.0
25.0574904 7.9641757965298305 10.0
1.61467632 8.928835812678667 10.0
1.8782919359999999 14.101012772414737 10.0
3.96926352 15.369727518193125 10.0
25.3626768 15.170900556250034 10.0
23.44787496 16.320476533639958 10.0
10.323683999999998 1.8517411163600968 10.0
10.29883968 19.068440264958344 10.0
10.3354416 4.305149737764533 10.0
8.25324732 5.520227442646645 10.0
6.1733023199999995 6.7390632820889875 10.0
6.09087132 14.165727456019965 10.0
8.17858656 15.377893098520328 10.0
10.27788048 16.605386420719224 10.0
20.90225232 0.9907111688071901 10.0
20.867439599999997 3.292794862065962 10.0
20.95355124 18.48522106862433 10.0
20.8954278 5.633384677494218 10.0
0.2506040424 9.063164528085446 10.0
2.19787884 10.12108924483896 10.0
2.57243508 12.976877988670772 10.0
0.489688704 14.0137689575453 10.0
4.7029888799999995 14.184596833209815 10.0
24.0467202 15.12310731621443 10.0
22.20606792 16.25833941876452 10.0
11.012602679999999 0.6278170381885623 10.0
11.02970232 3.0840708232443563 10.0
10.98699156 17.83984508131771 10.0
11.035836719999999 5.534138443348651 10.0
8.957655359999999 6.742782064454871 10.0
6.906286440000001 7.923643036351427 10.0
6.8121234 12.910904034846409 10.0
8.88831108 14.13995176872205 10.0
10.974058199999998 15.36703189288029 10.0
19.45376712 0.9362634727073459 10.0
19.43360028 3.2859475802494167 10.0
19.656918 18.369092743103486 10.0
21.6425466 17.406833210809875 10.0
19.4745474 5.676475330305239 10.0
21.63020112 6.770308924401272 10.0
25.21432656 10.309468199182668 10.0
1.8106525079999998 11.675599302069443 10.0
3.3166400400000002 11.019007939373648 10.0
4.00783356 12.997931412646935 10.0
25.30077048 12.744837774697997 10.0
23.2795368 13.899352452478592 10.0
21.45861684 15.196400778187513 10.0
12.406236119999999 0.6342432515255849 10.0
12.42141876 3.093633406470912 10.0
12.3758964 17.83868419158444 10.0
12.42351468 5.541812121246504 10.0
10.339224479999999 6.751734688669032 10.0
8.26515828 7.948375890499123 10.0
6.21649872 9.063439993445881 10.0
6.1271154 11.67138861727421 10.0
8.198191079999999 12.90883804464314 10.0
10.27966968 14.13700035414595 10.0
12.35593404 15.358807284261564 10.0
18.7352244 2.0729948938620946 10.0
18.790612919999997 19.370606089259194 10.0
18.731645999999998 4.483159388897552 10.0
19.36346364 17.113049403905144 10.0
20.957743079999997 7.937219543401474 10.0
23.81714028 10.307677674339836 10.0
0.395244504 11.560651542379036 10.0
4.28697432 10.012142694786618 10.0
4.733303039999999 11.72691456349919 10.0
23.9042232 12.720026216161605 10.0
21.8829384 13.941242863362 10.0
20.21772996 15.581442323785176 10.0
13.117468679999998 1.8765270959701623 10.0
13.09380012 19.085932315346017 10.0
13.12214616 4.328938139247878 10.0
13.05556236 16.598184969153543 10.0
13.121404919999998 6.766196620091909 10.0
11.03256504 7.981943312277936 10.0
8.94196152 9.194364744041561 10.0
4.8844648799999995 8.839230866148352 10.0
6.83497404 10.393799951670356 10.0
8.90735328 11.667492750033762 10.0
10.987093799999998 12.89435643712309 10.0
13.053722039999998 14.102094957759306 10.0
17.32947552 2.002259324521628 10.0
17.3446326 19.188661218691376 10.0
17.33307948 4.451244759281352 10.0
18.2559744 16.28836514305202 10.0
19.53688824 7.925709026554694 10.0
21.65875164 9.114184648057583 10.0
23.076232559999998 9.108478579877128 10.0
23.14192176 11.517856031025627 10.0
21.00433896 12.772954917559618 10.0
18.962912879999998 15.043084629007842 10.0
14.516699759999998 1.897102390784996 10.0
14.486206679999999 19.095278461503657 10.0
14.516316359999998 4.351486946609262 10.0
14.42238336 16.584313320645887 10.0
14.512967999999999 6.767987144934741 10.0
12.422364479999999 7.983123878108375 10.0
10.326342239999999 9.206741009163997 10.0
8.22331656 10.42390438034655 10.0
10.29932532 11.668555259281158 10.0
12.37357044 12.883928105620878 10.0
14.42074752 14.079428093814878 10.0
16.623661679999998 0.7228309438320061 10.0
16.62547644 3.193155105976915 10.0
16.52689152 17.847636815798605 10.0
16.600759919999998 5.620437805553737 10.0
17.014244039999998 16.517021068310868 10.0
18.7906896 9.110387161303004 10.0
20.95316784 10.330383890478611 10.0
21.690088199999998 11.539204596459397 10.0
19.454482799999997 12.744936155183867 10.0
18.55863036 13.857462041595182 10.0
15.21418104 0.6806257153938137 10.0
15.22182348 3.150280890234807 10.0
15.151967999999998 17.861193646751477 10.0
15.2084556 5.58809030179971 10.0
15.08262372 15.297024339135259 10.0
15.221005559999998 7.951366657269568 10.0
13.11856776 9.196293001564612 10.0
11.01293496 10.433132469921148 10.0
13.091704199999999 11.636266783818652 10.0
15.153424919999999 12.808253835889742 10.0
16.40282328 15.262532140789268 10.0
17.37026928 9.114656874389757 10.0
19.50097644 10.329773931466217 10.0
18.77425452 11.536430266757865 10.0
17.1708246 13.933628213755668 10.0
16.633578959999998 7.930057444030145 10.0
14.522118480000001 9.178230344358894 10.0
12.40672176 10.426895147116996 10.0
14.486002200000001 11.613403158902484 10.0
16.53951816 12.768744232764387 10.0
16.64178372 10.348013673546498 10.0
17.317845719999998 11.544733579765285 10.0
15.217963919999999 10.374123854496373 10.0
