N=153, ave_E=-6.251204901960785 
1
24.624698944077373 0 0
0 16.586589324756346 0
0 0 20
C
153
C
3.7537398576372665 0.4672691011623734 10.035029501314813
4.370687064982182 1.3967351244716097 11.06325519337409
4.53875063527551 15.964973716632453 9.55392300058346
2.2916015709046786 0.5920898204668947 9.500800704035086
5.8642981794351945 1.7113047669924113 11.019034783298459
3.5647452932414727 2.2292044320686033 11.912171457910997
3.970855828227197 14.924148649914667 8.617317373844283
5.550185519704543 15.221164704953079 10.368965852957857
1.249499086410691 1.730993048520897 9.454152506739614
1.7115003005897875 16.09081616983938 8.629745332231554
6.293432807933631 3.080295503500501 11.37193099703929
6.886370933808069 0.6433291122089321 10.949669434160214
3.904738511562349 3.608130535582222 12.08413971931623
4.6362151936961675 13.626380727967081 8.855298325846086
2.542278543685492 14.903365653490747 8.234709668889241
5.728542214156496 13.858228073548526 9.807048720480445
6.561620404133578 15.85483876351607 11.173372685131053
0.061904769416484436 1.3265423371081733 8.404076729701792
1.5955573680814936 3.211014413968906 9.547795728076245
0.49693134963127017 16.5285362621197 7.986844154635239
7.746265420935251 3.4340542806189043 11.185280403399787
5.34543114798454 3.9470111420763194 12.103041776956406
8.287417804930296 1.043954956123367 10.649779908052523
2.9867789843250327 4.46769735415907 11.410949005929552
3.883733643363051 12.410069546193373 8.838477228680059
1.9736351457892798 13.60743884295821 7.766609171121306
6.306877893557097 12.639876741287873 10.470181458242081
7.304104326695398 15.117183376476182 12.154545548691555
23.275634812426095 1.0094167011724269 8.781886664674776
24.683798221543157 2.240052061486994 7.211339551269642
1.6934873333121947 4.038685221274248 10.85614182173881
0.8728864782900772 4.1076024999186105 8.580091303140094
24.250403520127396 15.716025597457184 7.127465283269977
8.767156189758811 2.4040436701408603 10.844118494554849
8.500101329710292 4.56645390699867 11.91899238390959
3.447679474461329 5.705206197089817 10.840939249386011
4.3432797750574235 11.243965970305704 9.595657818981639
2.663579810684017 12.360376124576403 8.103204527814647
0.8325930834078833 13.561062739206191 6.858443337528811
5.606649954383313 11.372611557108513 10.313068942443952
7.650130596257573 12.63501687061572 11.072041470931598
8.892200410996837 15.706538068363423 12.575535413503097
7.942376523325884 13.668975089353056 12.081711932096393
22.746647029709425 1.4360602691016746 10.073122638883234
22.49192914383189 16.78181348110873 7.856148275967257
25.146988808681254 3.5975648781823524 7.264866479021322
1.2838628537871508 5.422305329566773 10.333878547185428
0.2682146833687852 5.35439983287122 9.240507231393813
24.268084053969243 14.264052154557339 7.068215714214393
10.107995671962769 2.8233028885027265 11.41129583267524
9.93298793656721 4.130956417687867 12.135585686593767
8.328959672048954 6.039824050127451 11.67274539446882
2.392060492716937 6.77786092872181 10.392203244919173
4.798885954920743 5.795055751462022 10.280698446179436
3.6345563147479325 10.00629126148171 9.487158852037897
2.061139013487059 11.065179123974156 7.88505050477486
6.346548283556005 10.150412136124517 10.583767217455957
8.548267240844908 11.437896372690753 10.882616263326572
9.307200462301372 14.24557469404956 12.304201289457318
21.92733404644208 0.4605946576180915 10.91620065320101
23.24428757067028 2.677158449962298 10.644577506867158
21.67682698408398 15.622394300718934 8.256790971698248
0.4765248616163133 6.679701493097902 8.582114459156625
23.466279231651143 5.2430706453234555 9.77658577131723
23.037710971228417 13.551061025843362 7.415447091108934
11.01046626356426 5.0920829227001985 12.395532332489346
9.462582312638501 7.0162765636758575 11.71187901227431
3.644283070830843 7.450297846536757 9.612883547350968
1.5494229946097646 7.46977050240402 9.163453889392748
5.9013829760449745 6.380678460751194 10.973947306358596
4.287160086163871 8.781371639848453 9.973641167327465
2.33760297100211 9.960479101766733 8.746625945529498
7.840134773310074 10.180367516445026 10.575905811220295
5.68000693253772 8.847270159235709 10.506598266539662
9.957169390930295 11.511756454953895 10.660936168372263
10.418094505765534 13.872691579439714 11.565460321135
20.66499810447184 -0.11519651671472478 10.468620737886468
22.725223541628075 4.032747222295985 10.321277175425308
20.499889498051804 15.749049496802776 9.186864694726903
21.784289170275937 14.270736550055215 7.548570756996753
24.003319290922526 7.7009046246445 8.400550657787267
22.595254380601236 6.390481135042125 9.988728130765036
23.095849885435385 12.079332955057732 7.311572480774405
12.421166016672563 4.722102461222184 12.258651376856541
10.83430116731833 6.558088620168788 12.138591518389756
1.273064923300173 8.9654496081746 8.971254067822187
6.514537979752501 7.598863927118599 10.571454867983917
8.597541263432007 8.98822299531749 10.21520599570141
10.612334131036416 10.377432784212457 10.052775469802686
10.805514894252703 12.519740074808663 11.332450552488105
21.33565178021379 4.626729572604835 10.929669091825346
19.70012852574606 14.453354898520784 8.829286319919241
20.460637727934948 13.612978763792677 7.836494760378088
22.80478594391639 7.563269106427672 9.20559333899423
24.450232952058585 9.193581557747299 8.399625786465421
21.391180476332686 6.160591007001002 10.723943027172833
22.44240887425535 11.10150375459537 8.225865586874114
12.877757184493648 3.9001042674659083 11.144297042950608
13.216272920877877 6.052131299406421 12.00471639455294
12.219982226299452 7.241456100348749 11.942981233819904
7.936860590762411 7.711271242972472 10.337346814642338
9.993712444163306 9.119107771679143 9.933293655912053
12.12273929016929 12.159031516763187 11.747891189368584
19.988853120865368 4.288993440774145 10.37052657331347
18.41947180776143 14.073953254306307 9.444383553402645
20.266373477965118 12.226787734154817 7.682214663003105
22.261811332199482 8.859345196264133 9.563113909344278
23.162164199691784 9.931087665483265 8.959404154011068
20.131233130160023 6.681642124048898 10.255033266998286
20.963794201459276 11.18080423815703 8.392400229263522
12.785168316463917 2.4471853889745514 11.189095497602391
13.852255020506565 4.552836317163044 10.259946645895578
14.149622884955242 6.013948970780831 10.658681794525268
12.63040208360039 8.053817485707341 10.713653833717323
13.317357310043317 12.596320357721062 11.093082293503535
19.298056441387164 5.507112560784251 9.794620762093178
17.15834247603945 14.878917020826057 9.359121978420216
18.078887596665894 12.746246538627535 10.13375951492159
20.890289475111206 9.12123085511271 9.79300223727995
19.859327204419518 8.103179175537816 10.069365349138245
20.2452454862711 10.389839553027375 9.3077338156003
13.896431730412239 1.6192608068525407 10.80417561434274
15.096147062967688 3.7745603728668273 9.937397772402733
15.756827735637286 6.118278617633549 10.367000501398941
13.658163143429347 7.316361137739349 9.946993312366857
12.640596708963237 9.56379423147586 10.67758385216544
14.25154451388478 11.651714095676189 10.529720049585741
13.621989460680497 14.030081725542326 10.964351766394472
18.367415194193647 5.476327850997504 8.724660251635722
16.193965391292547 14.536669336699035 10.494343721525237
17.794570822657576 11.404922233113139 9.316057657496888
16.59675159192082 13.090932451385296 10.719492083936462
18.411173284217274 8.720979868117015 9.73282779690252
18.755229577863922 10.260248530633055 9.290334673858123
14.29714945632921 0.5011306232688635 11.627368895240878
15.110921882334136 2.267303827747569 10.197344418298314
16.262668301346523 4.754811215370602 9.84410137781179
16.103297249780454 7.4810991429128295 9.793753695228947
14.813529393186514 8.123862652425787 9.486985438665052
13.732061864960523 10.334158372664168 10.00231217830461
15.66921305679426 12.040321296965905 10.12716980675345
12.838062169795792 15.02444775556147 11.775637329023883
14.731553770401678 14.541894112336333 10.108672380316587
17.20473540885009 4.6629215105114525 8.706856478690238
16.43730666625792 15.505326153264804 11.53372567390425
16.36375269051196 11.288583895589298 9.106863325387462
17.338422899417488 7.8655762834606815 9.160794884342447
15.84816074402087 0.27112770642033224 11.56095157344101
13.365301598887436 16.224669945690163 12.304027876084476
16.307189757037413 1.3892048129181704 10.63168711281897
14.656276065729635 9.513735904893744 9.205824556824691
16.840585360865074 3.996173792834897 7.504754978124424
15.66130852843321 10.205048361360264 8.490147567090833
