N=132, ave_E=-5.499485378787878 
1
21.299999999999997 0 0
0 17.21658502723464 0
0 0 10
C
132
C
4.893845399999999 0.03704768065670513 5.0
4.183554299999999 15.900291018977414 5.0
5.004434999999999 14.820501239239313 5.0
2.6588363999999993 15.462318312469593 5.0
4.437897599999999 13.596746375503475 5.0
2.2318991999999995 14.206196268882556 5.0
1.8101634599999996 16.525717903261768 5.0
3.1412174999999993 13.282388749491197 5.0
5.1037569 12.564560453365678 5.0
0.9862368599999999 13.669796345774031 5.0
0.39755172 16.58203335288585 5.0
2.8222074 0.3577847400849739 5.0
2.7562838999999992 11.89962150644382 5.0
4.3313763 11.234975241467428 5.0
6.425485799999999 12.580985075481658 5.0
1.2446931899999998 12.15537387702339 5.0
-0.37164026999999994 14.184210689802775 5.0
21.1326033 0.5920077710879875 5.0
20.583872699999997 15.593594773302257 5.0
3.0140777999999995 1.6902967714378534 5.0
3.4704302999999994 9.910331189471995 5.0
5.7521502 10.5038040919458 5.0
6.909719999999999 11.283508794659202 5.0
7.142315999999999 13.763196319546779 5.0
-0.08758474799999998 11.629458854196454 5.0
20.323416299999998 12.855882288611514 5.0
19.703138999999997 0.45037036938593367 5.0
0.5864997599999999 1.8521602172299025 5.0
19.1288058 16.280588165644 5.0
1.8720846899999999 2.5043588912316053 5.0
4.409760299999999 2.2670282666311756 5.0
2.0713994399999995 9.883111768543936 5.0
4.3596626999999994 8.843023433878637 5.0
5.702457299999999 9.243705017217469 5.0
8.258798099999998 10.997868432472352 5.0
8.486111699999999 13.562812486414796 5.0
20.6243001 10.324458925717096 5.0
19.034297699999996 12.756818058364805 5.0
18.9172968 1.5807958473476356 5.0
-0.204681285 2.9701019493883565 5.0
17.5961856 16.19336894589603 5.0
1.6559621099999997 4.029283476848859 5.0
3.7202154 3.654650586656233 5.0
5.6965997999999995 3.078514785304853 5.0
1.2642295499999998 8.756871642402356 5.0
4.068832499999999 7.552640386087401 5.0
6.815936099999998 8.424161136751046 5.0
8.949195 9.66542526745958 5.0
8.9986962 12.224928880533419 5.0
9.427742099999998 14.622269479235733 5.0
-0.05688846599999999 9.009525027677023 5.0
19.2136437 10.358117349445338 5.0
18.469741199999998 11.572816289456851 5.0
17.398095599999998 1.4504060406438741 5.0
19.7773908 2.7870035676237164 5.0
0.3542062199999999 4.465052460473196 5.0
16.840440299999997 0.1597452893361485 5.0
16.8481296 15.002015695181447 5.0
3.0210216 5.1642351950142205 5.0
6.905545199999999 2.538551029095693 5.0
5.786869199999999 4.510831360060611 5.0
1.6846382999999996 7.3367616264309055 5.0
5.121585 6.7477133863090994 5.0
2.9163321 6.794714663433449 5.0
6.428190899999999 7.13147106656616 5.0
8.278820099999999 8.410766633599856 5.0
10.300637399999998 9.719795242975588 5.0
10.3170384 12.168286315793816 5.0
9.2126334 16.12594879892938 5.0
20.485274999999998 7.913775473618674 5.0
18.5473158 9.166643582635567 5.0
17.150546999999996 11.584230885329909 5.0
16.437295199999998 2.617058656819883 5.0
19.336459499999997 4.214258466381468 5.0
0.8385554399999999 6.159078344227947 5.0
15.385330799999997 14.948093350876148 5.0
4.7670891 5.490575564205453 5.0
7.853416499999999 3.602036702813004 5.0
7.065508199999999 1.1651134534745742 5.0
7.171220099999999 4.883845891260678 5.0
7.455276899999999 6.22816849994224 5.0
8.669121299999999 6.896309731679161 5.0
11.083071599999998 8.630570774642562 5.0
10.961640299999997 10.945461147649448 5.0
11.142051299999999 13.415249136146368 5.0
8.3575023 0.5095489371000472 5.0
10.805426099999998 16.225529526726906 5.0
7.466991899999999 16.208261291944588 5.0
-0.3998734199999999 6.610944834852748 5.0
19.1909805 7.988581535562009 5.0
17.193828599999996 9.084950886681337 5.0
16.490715599999998 10.398714056939559 5.0
16.354864199999998 12.807606984195148 5.0
14.928339299999998 3.0020731477839315 5.0
16.5966618 4.323187799848782 5.0
17.844927 3.5333080953842835 5.0
19.926128699999996 5.673088582079168 5.0
17.893746599999997 5.242381274452839 5.0
14.0939544 15.700595849246522 5.0
9.136294199999998 3.1737741502605425 5.0
9.9415407 6.3141309089832225 5.0
10.924024499999998 7.276073164209904 5.0
12.342561899999998 9.103217683395233 5.0
12.331975799999999 11.249988103611175 5.0
11.611886699999998 14.907324477531658 5.0
12.417324899999997 12.613317822162806 5.0
9.351573299999998 1.6693596823862333 5.0
11.494779299999998 0.31071115330350896 5.0
18.5215854 6.708287406596733 5.0
17.061811199999998 7.467332207277453 5.0
15.007021499999999 10.612905591263385 5.0
14.954516999999997 12.338747724148467 5.0
14.505896399999997 4.4646220458475145 5.0
13.774859099999999 2.005714939087808 5.0
16.4803212 6.011566643714601 5.0
13.111278899999999 14.689982308147847 5.0
10.410481499999998 3.836905355754539 5.0
10.829260799999998 5.175770306982468 5.0
13.739351999999997 8.832641833107214 5.0
13.461046199999998 10.38395944357122 5.0
13.648763099999998 13.247852279926565 5.0
10.7725602 1.5230720810683234 5.0
13.008911099999999 0.39919923536798685 5.0
15.148133999999999 8.778994954162352 5.0
13.131066599999997 4.351474649048528 5.0
15.09105 5.77934934486726 5.0
14.787759299999998 0.693454776702465 5.0
12.705045299999998 3.045493375222617 5.0
11.362186799999998 2.794561648450672 5.0
12.273741599999997 5.442162527108869 5.0
14.308594499999996 6.824172240415049 5.0
12.939792599999999 6.736212707510908 5.0
