N=152, ave_E=-6.645903289473684 
1
25.35088897508512 0 0
0 17.075733002955324 0
0 0 20
C
152
C
2.923211007717065 1.3072668915072507 10.125742789681585
4.424820214378282 1.0332782176083313 9.950012331598423
2.5425420588671868 2.849478793402164 9.901809937068336
2.0069462222238714 16.970973380982194 10.500531284435297
5.367645126250673 2.159482574218745 9.768390469739366
4.965681430661723 16.763247089001243 9.721437766919315
3.59326035421754 3.9152265173156144 9.91079581555481
1.2195450755688297 3.268670962891714 9.632888182893666
2.8931702042815894 15.700487618363308 10.560218940871948
0.39591497347949434 16.890597905737284 10.732081305566886
6.7610060369882765 1.9462578962108419 9.629377144279744
4.9080335091323795 3.532149523127315 9.78570762629277
4.136935519177215 15.606434480983031 9.853667051667294
6.384165072373636 16.558116308436738 9.237688056875971
3.231249659653324 5.411521773165581 9.902047973584533
0.07747840092121415 2.811604817601609 10.35277011700541
0.8149372822597788 4.698678223224207 9.312788577736434
2.415600017413346 14.455000728860751 11.18387461331065
24.966265287555128 0.8323429446426549 11.514923898212988
24.97047353512499 15.61671407225081 10.517610404472507
7.251013369987697 0.6867757359390614 9.194900993089384
7.639718550642677 3.051928683885202 9.990121484577784
4.64894742380701 14.245105818788423 9.391578664597965
6.808995269818112 15.250063933211353 8.64985688012506
1.807901182347093 5.741220025986642 9.741016270376598
4.233395651727414 6.568488062780819 9.980123950897468
0.1802379758728319 2.08578371057799 11.562650219710687
24.21309037610535 3.564234825439868 10.009521460647921
24.718612453157522 4.894280744773061 9.582900514492092
2.704356783195155 13.12509141539158 10.558850230903808
1.2290364484011018 14.552673921637654 11.924525233460667
23.485519862520405 0.8430596746753097 11.446428890677026
23.50468513458557 15.68489747413161 10.250473924169324
0.032229345680694965 14.471308053878571 11.28212418537137
8.549942219293108 0.5625890525284682 8.643429894187715
7.285693386105613 4.439553974904361 9.587601735687002
3.9643466670348357 12.984643511442272 9.811891643074546
5.9816436572272345 14.089067770607416 8.721267834984452
8.152136069496073 15.186798342435404 8.05399197095247
1.2849224831466768 6.949652574872788 10.307186124153493
5.679232902643444 6.40821523281508 9.808202077073478
3.624264491434069 7.929406907383354 10.126159353584931
23.01695938159391 3.457135828045332 10.736782526761793
24.195623613601516 6.118935240012014 10.266124825109344
1.8334776942340563 11.91449024841406 10.704052505784578
22.66465807750715 2.220306335175272 11.557056361580035
22.786063484808835 16.640472568709992 11.073068615020496
22.934239430868207 14.349660531965519 9.940609889208606
24.878449808145433 13.15282240578838 10.935840563432357
9.721939167500267 1.4022831002288954 9.11176673980724
8.941866962847923 16.372998286951702 7.95229086940688
7.959874927509026 5.063706167628383 8.46508103442638
6.353769356492509 5.236222298157242 10.358840048168453
4.528987017176907 11.660232584000054 9.542434306738432
6.523341452846853 12.765100812223276 8.543692593900762
8.822464275775273 13.916415034214536 7.9335454937562915
25.23085251578809 7.028030189356352 10.80658673513685
2.213915949994261 8.054145136969943 10.488867495141598
6.500069336767726 7.6568611329231855 9.338794067131065
4.41508547301185 9.11611912388974 9.822067704142011
22.143063536844775 4.658567326400266 10.78236651961371
22.777139971889603 5.970273908488284 10.811406974589861
2.443425153152399 10.58458093494489 10.51951469660209
0.35156866339537796 11.943860509179142 11.08633915079853
21.527822812308433 2.316972059705002 12.477246024072372
21.431717592203885 16.247559952311992 11.622992476566875
23.54425787227568 13.087132060926011 10.308376306734484
10.918298320012484 0.5156290791970407 8.896700747422365
10.441397396613183 16.364153057256168 8.011919016714476
8.652866828531954 6.320309359315867 8.50953435382635
5.852683685010976 11.535613884544487 9.036368673301528
3.790769130222428 10.453866198807267 9.909070050812375
10.265081963791467 13.846404528902418 8.150634796528845
24.907425874243955 8.223365651029232 11.568303586970387
1.7023933175216859 9.338462243321223 10.916083532587926
7.960660805067254 7.5666329597355695 8.895689092228523
5.827763761148468 9.000533487192737 9.42424917644614
20.792342821363263 4.552475797252904 11.321578737931183
22.02196234021079 7.022685484926427 11.454224586582509
24.96073879375856 10.7308175123822 11.326637013900388
21.17080624287231 1.1279631571097184 13.169456213176097
20.489348996333046 3.2700711729979566 12.108825006126953
20.746863326541963 15.01528968015372 11.12995934239181
20.580231933308724 17.187749811454708 12.375187867752487
22.799524806854603 11.880492464005176 10.508565016856988
12.101905975370235 0.411690799981352 9.762439556834416
11.04525557199971 15.065167896255353 8.27762727792047
10.064657835554444 6.340766087453407 8.437111743773116
6.543343304248195 10.201145350363529 9.015183423359911
10.96035544482215 12.60358145374832 8.273997221048454
23.53832576425551 8.418438824854993 11.934879821915278
0.3613160802062982 9.433454546016664 11.370197696364617
8.717638349863295 8.834215847743952 8.681932300682739
19.512629945900965 5.036743585216717 10.606933607175797
21.03715635619566 7.925889306384746 10.821880581302576
23.49469688432939 10.753033041019044 11.188099761473165
19.198456378832738 2.8238481181647277 11.55241464951417
19.291874404705926 14.930167151133988 10.983983448833396
19.17531101719848 0.23810060584660844 11.963146658213788
21.493066743523592 11.670460948068826 9.999642945225702
12.761333299390147 1.5823518274649602 10.2711235919495
12.743815835108363 16.157912354046477 9.857832690700757
12.339215647066005 15.093718521836294 8.989356461352425
10.84260056553288 7.5888314126394105 8.413843674314762
7.974553092225601 10.112556447544197 8.74661872395954
10.225027559210831 11.379849048091529 8.480374880592098
12.387255581673793 12.579897412073224 8.227342063873646
22.767582686745996 9.538162940790784 11.478742347750899
10.172906131478056 8.837630994344543 8.47888715236586
18.61036645638871 3.8671412531792924 10.696256809879092
18.927734235467803 6.387212081221445 10.592234852300571
19.730520836641823 7.613335089498652 10.205425513478858
21.4811518257053 9.28892554187965 10.81200206588036
18.47818692127262 1.5705610338264193 11.798306370746687
18.582024162514568 13.75119024167794 10.486011056947227
18.506529215146763 16.084025657342686 11.470054014909675
20.867888470509016 10.36478209973085 10.006843549840692
14.219541784126019 1.5997554145415722 10.55456557361224
12.142594152175246 2.864642044308788 10.2120905359324
12.287297026445032 7.559990499597419 8.409320980507005
10.911124018432536 10.07703892289805 8.375757831723089
13.146387952032715 11.32785344109753 8.206156813932026
17.192009569121677 3.978884849950632 10.656088147770678
17.412613004982866 6.479250282107374 10.63900902773348
18.909405542738817 8.831056837138405 9.567844704842567
17.031766599910164 1.565311953501311 11.43768104870675
19.24398657543199 12.718091319266142 9.733101556213015
17.177965176629478 13.630276976284014 10.770107639029511
17.063987579797494 16.12493911361777 11.244930979715434
19.51899301903371 10.208061022229725 9.56730912268112
14.997687321216258 2.8099313957673195 10.567002981583585
12.853686587926383 4.099319994820476 10.078194995571039
12.976131381676044 6.419690125393066 8.94180866724188
13.066253791982472 8.769413440997736 8.10219436548256
12.394455234142717 10.039967506548633 8.214071528095609
14.58710432337578 11.243294411266897 8.301787984314565
16.39249323262544 2.831532198016058 10.99100552606124
16.609471491363195 5.248585128851381 10.312244400122701
16.8496965152911 7.867575678179653 10.478512906686987
17.361835174365773 8.700888524456877 9.318263417608986
16.36022155096016 0.2953213871395117 11.303725999216336
18.681298243741 11.390726290014412 9.448052828065936
14.334736223628806 4.0719134433507325 10.185966028279672
12.234871388044557 5.2505829896127265 9.458347907391499
14.503978758426474 6.3804159394862685 9.047318353046638
14.539292546768767 8.73476677873474 8.137602297267009
15.306080885598167 9.979263275723127 8.32928120193543
15.159223185765498 5.283846517502484 9.86937746173636
16.666080026444558 9.990635713903096 8.952996383503187
16.730876898664878 7.604985056060206 8.410332635700843
17.277949082747213 11.254137501723772 9.319156054544731
15.265899726572659 7.469437887482747 8.360404476428315
