N=252, ave_E=-6.521103174603175 
1
29.82 0 0
0 22.13560932073025 0
0 0 10
C
252
C
2.485374738 0.6166183874819902 10.0
3.90051564 0.6218888760612561 10.0
1.7762760119999998 1.8469487569421583 10.0
1.781345412 21.52092558550289 10.0
4.6077864 1.8562966247583028 10.0
4.61413806 21.52789830243892 10.0
0.36673828799999997 1.8536403516398152 10.0
2.484495048 3.0739720663698096 10.0
2.4875187960000003 20.284806754205352 10.0
0.384994092 21.528031116094844 10.0
6.02411712 1.860429343018483 10.0
3.90048582 3.08125468183633 10.0
3.9054657600000002 20.287595840979765 10.0
6.03649242 21.53732807200955 10.0
29.48336202 0.6491688009881239 10.0
29.47593684 3.0830698018006295 10.0
1.78769409 4.289017797594013 10.0
1.7863134239999998 19.046009514180003 10.0
29.51765502 20.312941113652002 10.0
6.72882336 0.6418264193764377 10.0
6.7388727 3.0867664485571917 10.0
4.61655348 4.313278425409535 10.0
4.61616582 19.050835077011925 10.0
6.73326654 20.28992007995844 10.0
28.06407912 0.6957354823161442 10.0
28.05146526 3.093650623055939 10.0
0.37175103 4.307810929907314 10.0
2.491693596 5.48681988915737 10.0
2.4925732860000003 17.821024894370794 10.0
0.391831818 19.026574449196403 10.0
28.120707300000003 20.424017601223426 10.0
8.11718292 0.6422447823925995 10.0
8.15884146 3.084707836890364 10.0
6.03729756 4.312990662488365 10.0
3.9160220399999996 5.5343007711503365 10.0
3.90525702 17.825297066969693 10.0
6.042486240000001 19.043087613749666 10.0
27.35176878 1.8928225936984397 10.0
27.3599991 21.670783660604236 10.0
27.33617292 4.312326594208742 10.0
29.462666940000002 5.52805852932189 10.0
1.74217386 6.635259571935496 10.0
1.7894355780000002 16.58503887672918 10.0
29.54422464 17.723783162624827 10.0
27.74682414 18.873196812213063 10.0
26.657499540000003 19.741178324897536 10.0
8.862742560000001 1.8568256658210684 10.0
8.750887740000001 21.520704229409684 10.0
8.87001864 4.31042293180716 10.0
6.75786804 5.540565148588102 10.0
4.667038740000001 6.780845474437939 10.0
4.61050002 16.60243746565527 10.0
6.73436988 17.804423187380245 10.0
25.9059759 1.8880213800367736 10.0
25.906602120000002 21.667419047987483 10.0
25.91340108 4.306571335785353 10.0
28.038523379999997 5.546674576760624 10.0
2.676025926 7.996378189067199 10.0
1.063118784 7.984934079048381 10.0
2.479658244 15.386749801760766 10.0
0.404758788 16.56177435133309 10.0
28.19203674 17.659877658515875 10.0
25.54408038 18.904253072090047 10.0
25.158239400000003 20.425810585578404 10.0
10.30069278 1.8641171355313169 10.0
10.340085 21.604000527283592 10.0
9.52501494 20.103648927524496 10.0
10.29123984 4.308696354280143 10.0
8.16104814 5.5390820627636135 10.0
6.05381784 6.7441003629655265 10.0
4.02072006 7.992880762794524 10.0
3.86157072 15.386993293463293 10.0
6.047734559999999 16.621983208685478 10.0
8.12436954 17.76088244384637 10.0
25.19721414 0.6886875043084236 10.0
25.20317814 3.0852612271233824 10.0
25.203535979999998 5.531290328282716 10.0
27.3110943 6.763247665027959 10.0
1.8815883239999998 9.394795307904333 10.0
29.3703144 7.879612849900347 10.0
0.2632530474 9.37381075026828 10.0
1.783456668 14.161123249281253 10.0
29.49177126 15.346883569374132 10.0
27.3780402 16.534591823087233 10.0
25.10235672 17.68540001606268 10.0
23.77641042 20.31648281114332 10.0
11.0275851 0.6623328478511622 10.0
11.00092602 3.0829369881447057 10.0
11.09551506 20.187631429287347 10.0
8.78679102 18.937877062648237 10.0
11.002089 5.535938806240069 10.0
8.86363716 6.759152577303624 10.0
4.6810541400000005 9.205115271634996 10.0
4.47544524 14.139961606770635 10.0
6.7892684999999995 15.448508151765605 10.0
8.86572456 16.58508314794782 10.0
23.78004846 0.646592216063191 10.0
23.781539459999998 3.0756322370688647 10.0
23.7836865 5.529696564411624 10.0
25.90919646 6.759528882662075 10.0
27.99549312 7.96762403255957 10.0
2.5474808519999996 10.547064451094945 10.0
29.4120624 10.539272716614049 10.0
2.480937522 12.952607522806664 10.0
0.363046572 14.144787169602553 10.0
28.05954648 15.339689496344894 10.0
25.90540932 16.545261186779825 10.0
23.770446420000003 17.737064528217264 10.0
23.13608556 19.031245062763077 10.0
23.071107780000002 21.55359774486029 10.0
12.431540519999999 0.6318233375243998 10.0
12.42423462 3.078244238968711 10.0
12.477970260000001 20.262981043415113 10.0
12.42515904 5.536602874519692 10.0
10.29025578 6.762207291389884 10.0
8.182101059999999 7.994651611540182 10.0
6.08593398 9.177512166812043 10.0
3.91617114 10.480546945086152 10.0
6.11077404 14.303875793790644 10.0
5.40377166 12.906742540294113 10.0
8.20637454 15.391376144108799 10.0
10.283993579999999 16.610052115261603 10.0
23.069765880000002 1.8517942418224664 10.0
23.07304608 4.300550450050115 10.0
23.073195180000003 6.759772374364603 10.0
25.20228354 7.989848184317584 10.0
27.319652639999997 9.226985253643877 10.0
1.8188082780000001 11.734307857012313 10.0
28.02212238 10.492787937040516 10.0
0.340541418 11.728951039556696 10.0
29.46719958 12.929342997410576 10.0
27.34303152 14.135600891734452 10.0
25.22417142 15.34869868933843 10.0
23.10459564 16.563456657641467 10.0
21.80256498 19.060884643643536 10.0
21.68534256 21.59187021337583 10.0
13.13767812 1.8484517648150363 10.0
13.148622060000001 21.517118260699725 10.0
13.13538198 4.306881234315843 10.0
13.15577886 19.05953437147497 10.0
13.13678352 6.767276345924332 10.0
11.0032818 7.995846934443502 10.0
8.8882983 9.218662264539283 10.0
6.82755738 10.342974133157812 10.0
4.520622540000001 11.694065319267224 10.0
7.00579152 12.923521332159224 10.0
6.14476884 11.501928230363285 10.0
8.9732853 14.137504554136035 10.0
10.996423199999999 15.382278408677978 10.0
11.0043255 17.819032689531927 10.0
21.65406138 1.854539057378237 10.0
21.652779119999998 4.302254891967811 10.0
21.65206344 6.760192950941697 10.0
23.7835374 7.988342962883774 10.0
25.91095584 9.222779487872938 10.0
27.32185932 11.693268437331678 10.0
28.04162466 12.920665838556852 10.0
25.926551699999997 14.13617641757679 10.0
23.83211418 15.35383415070084 10.0
21.76212906 16.548160951600842 10.0
21.049281960000002 17.68666174579396 10.0
21.01439256 20.43001635134934 10.0
20.20701606 19.038682627494843 10.0
20.95624356 0.6484538208070644 10.0
14.55526128 1.8478341813149877 10.0
14.55368082 21.525596199069568 10.0
14.55705048 4.307855201125956 10.0
12.41979144 17.836807583816473 10.0
14.5499235 19.058383319790295 10.0
14.5576767 6.7682724483437635 10.0
12.426143099999999 7.996665951988369 10.0
10.2987843 9.224196166869465 10.0
8.21538018 10.407012450922686 10.0
8.33868588 12.91271915481071 10.0
10.34667522 14.147819748079495 10.0
20.94365952 3.0770710516747117 10.0
20.942466720000002 5.533481753605469 10.0
20.94204924 7.985000485876344 10.0
23.07468618 9.21410232901921 10.0
25.20443058 10.44747634476098 10.0
25.914564060000004 11.683794396542405 10.0
25.21752156 12.905237318860301 10.0
23.15203926 14.149944766574285 10.0
21.1034649 15.41470707633285 10.0
19.3999974 17.69175293593773 10.0
19.43023488 20.439844561887746 10.0
18.61620852 19.068809191780357 10.0
19.505560199999998 0.6552184630154796 10.0
15.262800420000001 0.6223492967351272 10.0
15.266706840000001 3.0793067482161063 10.0
15.2506935 20.300013917808695 10.0
15.26781018 5.539259147638179 10.0
13.1351136 16.623842599868418 10.0
15.242194800000002 17.827444221073804 10.0
15.2661999 7.998016224156933 10.0
13.13663442 9.226343320973577 10.0
11.02060722 10.453630044152144 10.0
8.970213840000001 11.677397205448715 10.0
11.04222672 12.91916061712304 10.0
19.5227067 3.0816309871947825 10.0
19.522468139999997 5.536005213068032 10.0
19.51680234 7.979046006969067 10.0
21.65179506 9.207218154520465 10.0
23.790157439999998 10.44172108633759 10.0
23.82218412 12.907605829057621 10.0
21.7957362 14.174293936827087 10.0
19.598896800000002 15.443416961621836 10.0
18.728451 16.546832815041597 10.0
18.765338340000003 21.602783068770954 10.0
17.2838211 19.06493546014923 10.0
18.81176808 1.8637297623682039 10.0
16.674300300000002 0.6302340007751713 10.0
16.68587046 3.0822950554744044 10.0
16.63302942 20.300921477790844 10.0
16.685959920000002 5.5405208773694605 10.0
14.52734976 16.59825383549365 10.0
16.61782122 17.82877235763305 10.0
16.68214296 7.994828696414748 10.0
14.55472452 9.226741761941348 10.0
12.427485 10.452855297825918 10.0
10.3402341 11.67542713621917 10.0
12.42548706 12.919913227839947 10.0
18.814541339999998 4.310378660588519 10.0
18.81281178 6.763092715762713 10.0
18.80529714 9.180301253586457 10.0
20.939604000000003 10.412413539596944 10.0
23.09758794 11.656567597077908 10.0
21.09633792 12.90851338903977 10.0
18.43615536 14.373957132900076 10.0
19.723305840000002 13.849852311013143 10.0
17.3108082 16.571270527731684 10.0
17.36645232 21.560791817889527 10.0
17.392127340000002 1.8583331008158102 10.0
17.39591448 4.311596119101159 10.0
17.39320086 6.767608380064142 10.0
15.199760939999999 15.390424312908006 10.0
17.38553712 9.205336627728203 10.0
15.258804539999998 10.450044075442186 10.0
13.132161420000001 11.68361731166784 10.0
13.135560900000002 14.131306583526229 10.0
19.47905022 10.353931259771574 10.0
21.7032942 11.648377421629238 10.0
19.59797238 12.487073523182387 10.0
17.16370614 14.169667594479055 10.0
16.537665060000002 15.372715825451422 10.0
14.521326120000001 14.160835486360085 10.0
16.6655034 10.438799185907254 10.0
14.544019140000001 11.682023547796748 10.0
18.75525918 11.501308433302308 10.0
16.6043724 12.904019860347663 10.0
15.23244366 12.903599283770566 10.0
17.35819218 11.634874699943593 10.0
