N=137, ave_E=-6.661139270072993 
1
21.11046347819977 0 0
0 17.063384480598824 0
0 0 20
C
137
C
2.2871920550820755 0.6060607026588052 8.887508307746025
3.6845991850215096 0.60847517156281 8.563596492067845
1.7895466553250814 16.63906929871977 9.771650197869612
1.734997217697413 1.7992827033257042 9.538067379440406
4.362962818429981 1.9392024560666146 8.487420425263409
4.443013695939315 16.450996674974615 8.789864980897562
2.3862634601852672 15.377556220684621 9.731034855459445
1.0635557052634435 17.119011114005577 10.92017834327229
1.0405073012379449 1.5850928632945394 10.80749009456472
2.119490533211257 3.09340390910328 9.05662987994884
5.834573227495286 1.8976189880873953 8.660466759690344
3.583374512643542 3.2208332644043924 8.722073633390103
3.805245483799421 15.317237156545705 9.428590299825292
5.852643784232626 16.439888411677742 8.643697321096393
1.6547436797386887 14.237722137380619 10.103292605807415
20.803411786909354 16.481830210731054 11.212810993346157
20.722812037349588 1.8618882609850214 10.84257509020454
1.0658293021800456 4.0320777527655025 8.77803122813091
6.533625115112394 0.6220030227790286 8.682350282394506
6.529550795661102 3.047947052846965 9.162776858282886
4.346454435990029 4.4557615894187705 9.027253629362278
4.545652769370322 14.130035117923562 9.773077384132929
6.73033241380226 15.348480213529681 9.19720772688536
2.3721405601183516 13.035606700722433 10.318500401096447
0.17292382832605602 14.181634792592892 9.940593371789515
19.871490376664223 0.6894562879692838 11.183434742759584
20.350866781327184 15.227074232950221 10.622550541276823
20.091841394449673 2.6436813477326173 9.816903895635559
20.71092684641136 3.8173862492306077 9.186503829910496
1.2255278473462792 5.507821622954572 8.463098792692751
7.759003078167978 0.38944274301605114 9.506371951175954
7.94249522672049 2.9339807079010454 9.627266520897589
5.785533620835429 4.327854459352203 9.389580541961347
3.6698007501232914 5.742716173714496 9.149218588781395
3.750928261270013 12.931588308928703 10.090804726003409
6.020134201468663 14.139351725849966 9.717952314712392
8.018218459216792 15.947012550955646 9.8695908551896
20.710124648799187 12.956517913654858 9.337012514595916
18.479149757959558 0.6264668041591532 10.436837928762973
18.892450411935755 14.961721540892427 10.6731561875302
18.69572200278241 2.144782112288869 9.523260321958514
20.10233329479834 5.1453612098176915 9.237287874446785
0.02896313368282052 6.261340681617816 9.067155378640788
2.544296389783071 6.057518553997063 8.302837668541347
8.638549428523692 1.5738634499678572 9.832246147966192
8.672516164260117 4.140890955598281 10.029673581058091
6.477281288089078 5.443049015466219 10.00445995707286
4.238326642054689 6.758721275842791 9.986620128781425
4.426843080915013 11.653438431024966 10.17738735931118
6.642006234609472 12.87364105523259 10.373744402705594
8.067448060047955 15.384893476011278 11.216260026815835
9.351154233693805 15.694423270489342 9.347419081099257
0.3680187098154566 11.65751657991583 9.251678669268546
19.2064474457105 12.873231534005054 9.314296466571488
17.169562156089437 1.1519422609314345 11.007177239240196
17.97053536137929 16.126161024617453 10.536978831572235
18.36340108670859 13.524063144864055 10.344368152119028
17.568634357681322 3.092857880799901 9.678585760282619
18.691183253134596 5.371792321875238 9.011792444843028
20.668663698528004 7.70017645117535 9.059484252475471
10.12457828414461 1.5175269797667124 10.244108317121157
10.101166780147286 4.074087805356736 10.403358517669378
7.926071286134451 5.3518964155708595 10.335686102350529
5.674365920159228 6.659497695088109 10.383199511700056
3.4325613615552824 8.046273078595338 10.215980854514989
3.6931700331936583 10.456066615252388 10.226744217584155
5.853847080650882 11.625181466325094 10.399017492785127
7.930293378830091 12.854103480002303 11.12456330939785
8.688581226967028 14.079425119554104 11.434916855574535
10.483772820226177 15.972539374138622 10.185296349853719
20.898831081830817 10.281985966781317 9.603777413647197
16.230294304553894 0.1376051046361171 11.267579266200865
16.700508768067316 2.5064064195861997 10.693493591782435
16.396919192787323 15.747183255303353 10.641044496605616
18.00232771937746 12.424464522165305 11.313189760532634
16.86639479007901 14.116128459571874 10.170489292371826
17.576593002412608 4.559251016293603 9.412534454362998
18.256476589191507 6.809655478517379 8.829112603138721
19.201929806526163 7.937681699760805 9.034032764113022
0.5198219416408433 8.921044547377717 9.373048967744616
10.891056992111087 0.2685964414475542 10.587465545636999
10.824664584472147 2.8301841401055627 10.428691073843218
10.80870507408263 5.293386070186887 10.741185399414881
8.632026295308929 6.57088753948036 10.818134525445277
6.371412313745907 7.802710328519269 10.84804597088058
4.288210667253676 9.197778516884068 10.687725380634877
2.034411143301416 8.82371500230038 9.381671551418812
2.4689320351658974 10.269563822879443 9.56096182574775
6.5087992100620315 10.325053949210348 10.745823754770655
8.504054665704082 11.557627527166405 11.585247141977039
10.133001359072411 13.968666690890537 11.617239900713017
11.006446785482927 14.904320315499694 10.991359258155121
19.46988491945495 10.235556497609608 9.987749984573213
14.993305586585299 0.5167765433640717 11.796589641136261
15.205740180566425 2.8028485981676434 10.843883344279245
15.16039490501525 15.336587034546703 11.553551713712586
18.785568135345628 11.030829658096877 11.193306114414181
16.453263019810638 12.236443088573587 11.738312868717568
15.757525474959609 13.144897678320667 10.599893959346701
16.35873036435526 5.497788352879979 9.52706615199402
16.82392053756087 6.918332174274313 9.257684744793327
18.61972433426089 9.158652176270055 9.556323470391977
12.172525456628247 0.421837578452468 11.284110840417593
12.28118101215054 2.8226933143185797 10.601796874364457
10.100660129023808 6.559847529721412 10.798153917758867
12.281455448175759 5.290297597595898 10.815280152918646
7.831243084190377 7.752458661223906 11.154772085304678
5.719098992269534 9.084289946703604 10.822594482518134
7.848427001461633 10.326180132586067 11.249263709154992
9.786557542931675 11.57660201070883 12.2566193466781
10.625888460361418 12.735854225551753 12.190849846377006
12.383988969289375 14.971601240506695 11.474997003135968
14.365438181816682 1.7272581574330965 11.361833025673949
14.27257325297608 16.386292321024182 12.065019590828076
14.512493670405822 4.051871278762997 10.552499482185791
14.735525717053003 13.937764901596173 11.589885497332816
17.466459714446838 10.101284725131775 11.306291693593277
16.295715630872834 10.78697683048464 11.817402774142934
15.525901469676802 13.09425355318225 12.698392961268368
15.232846015672434 5.341624258113539 10.460921696956412
16.47646341917318 7.955410556236148 10.231798835600063
17.409968114179176 9.049224691595974 10.340621788177824
12.921271375273037 1.6898483932978317 11.133542689637874
12.858784403377564 16.29754565834059 11.73783713996313
13.035626755934446 4.081919898833331 10.538762814401377
10.82204688700085 7.827503426169579 10.972984235014941
13.008774246390175 6.58346325384256 10.973341031580777
8.581994496865596 9.027042291771195 11.330434927881022
13.26260645925205 13.808663334615963 11.454659598883726
15.097401281996301 10.082480875434156 12.318701949132297
14.497737456434562 6.5452071458370575 10.977563124276411
15.220749720099425 7.824551460654436 11.066108138696244
12.304529184757431 7.837690266704497 11.04309476020029
10.037877610639642 8.985936598557434 11.407443520005728
14.4430824664895 8.967644650394233 11.63739890668234
13.00518546759888 9.071850739417249 11.436641372309378
12.23908674797501 10.272140393936011 11.899228119906326
