N=252, ave_E=-6.639785714285715 
1
29.82 0 0
0 22.13560932073025 0
0 0 10
C
252
C
2.5304983620000003 0.5984959641311083 10.0
3.94366518 0.6047869043000598 10.0
1.858805844 1.8164790907121735 10.0
1.788505194 21.535623630091855 10.0
4.66223772 1.8282663026754622 10.0
0.489805428 1.8241822827557874 10.0
2.553972666 3.0547583574794164 10.0
2.4687262320000003 20.36363165899647 10.0
0.36841119 21.52212090840621 10.0
6.05193918 1.8396329380616572 10.0
3.9515376599999996 3.0583443261893746 10.0
29.51178048 0.5881674888220556 10.0
29.66603934 3.02365782638379 10.0
1.832874372 4.299111635444267 10.0
1.7470047 19.13643347825519 10.0
3.8867388000000003 20.390061576525426 10.0
29.45446644 20.292731302342172 10.0
6.74823618 0.6308161673003065 10.0
6.74656626 3.0631477534119727 10.0
4.63891848 4.284015149887529 10.0
28.04320512 0.5398188909437165 10.0
28.37504208 2.8157823192528126 10.0
0.435494262 4.294197530175065 10.0
2.514192786 5.516326656381903 10.0
2.446799586 17.965858186156332 10.0
0.33173855399999996 19.09740839902274 10.0
4.60668306 19.206072105178205 10.0
28.03029306 20.270971998379895 10.0
8.15395098 0.6166405230913109 10.0
6.067535039999999 21.55426181313991 10.0
8.14437876 3.0596724627486185 10.0
6.0403392 4.286804236661941 10.0
3.9231490200000003 5.508158616542553 10.0
27.254317020000002 1.7013495730741233 10.0
27.327793500000002 21.46908398847374 10.0
27.10104222 3.3644576674857527 10.0
29.49633372 5.58109544925436 10.0
1.791856962 6.751205893557481 10.0
1.727723088 16.696580212096336 10.0
3.87743496 18.03064911463811 10.0
29.44000374 17.85431685078917 10.0
6.0357171 19.160561292414783 10.0
27.3200403 19.04625300588253 10.0
8.84986032 1.8261656333509249 10.0
8.865396539999999 21.51450625879988 10.0
6.74629788 20.33259753472881 10.0
8.840973960000001 4.278459111948026 10.0
6.73386294 5.505435936596103 10.0
4.61518176 6.71510271475537 10.0
25.7865468 1.7264070828251898 10.0
25.88119548 21.466981105588275 10.0
25.66282362 4.327135316844311 10.0
27.19566108 4.749482742683845 10.0
28.07675262 5.732126711649702 10.0
0.381236772 6.780601982735411 10.0
2.4856997759999997 7.949207205604723 10.0
2.45352996 15.514671488025266 10.0
0.329803236 16.649276414977937 10.0
4.53633768 16.887189943957146 10.0
28.0269234 17.833752869730212 10.0
6.73934982 17.928515413232258 10.0
25.90111524 19.040807645989634 10.0
10.24591344 1.8069120803637537 10.0
8.16334428 20.306388973293064 10.0
10.27251288 21.49843580643303 10.0
10.2363114 4.261126929849894 10.0
8.1329577 5.5104828555212295 10.0
6.02504154 6.718511598590763 10.0
3.9056446800000004 7.924039017807052 10.0
25.1346816 0.5356109116118457 10.0
25.0306098 2.970598770842 10.0
25.18650876 20.256893750851912 10.0
25.12406568 5.671364464064297 10.0
27.37607208 6.906841362691536 10.0
29.47993272 8.034717064410703 10.0
1.768039728 9.183975764733697 10.0
1.80382671 14.16802955938932 10.0
3.81663198 15.73518642807838 10.0
29.46013224 15.394807163553512 10.0
6.01001226 16.757608086993592 10.0
27.32507988 16.60166271932905 10.0
8.16731034 17.88977809692098 10.0
25.20022596 17.821556148994492 10.0
10.95852198 0.5670811073831279 10.0
10.93985466 3.0139402938919893 10.0
8.87213586 19.07458658581307 10.0
10.99406742 20.26625711359458 10.0
10.93705158 5.4716348611633485 10.0
8.8213524 6.738832087947192 10.0
6.7178496 7.932561227395534 10.0
4.6003314 9.10526153798918 10.0
23.738121539999998 0.5487815991576802 10.0
23.723390459999997 2.9806926086922525 10.0
23.766420720000003 20.262095619042285 10.0
25.92604476 6.880123682241415 10.0
28.06369146 8.077195298697186 10.0
0.35928627 9.224749557102482 10.0
2.471204274 10.356875295811232 10.0
2.4822317099999998 12.817314678638361 10.0
0.366490782 14.160370638564348 10.0
4.71248442 14.80549083660771 10.0
28.03908996 15.379445050684927 10.0
6.78252918 15.476553968774969 10.0
25.91137332 16.59694783454373 10.0
8.874372359999999 16.67340422913753 10.0
23.78768238 17.8254077450163 10.0
12.35433654 0.5467207739299202 10.0
12.33209082 2.977792843871237 10.0
10.27773138 19.06925190396677 10.0
12.39176064 20.263999281443866 10.0
12.34446612 5.41257705549564 10.0
10.211858999999999 6.739916732803909 10.0
8.100931019999999 7.963440402397953 10.0
6.0279937199999996 9.119627548438334 10.0
3.89532696 10.279489205625959 10.0
23.030612220000002 1.7848163151398007 10.0
23.04602916 21.486770340321005 10.0
23.106235740000002 4.211675978627382 10.0
23.07101832 19.05191972186864 10.0
25.24895184 8.074671839234622 10.0
27.355287540000003 9.285688889562453 10.0
29.46654354 10.467885376554694 10.0
1.755449724 11.631200188796353 10.0
3.86040774 12.576567791666099 10.0
29.47271628 12.921374178055112 10.0
4.79284932 13.488953336647958 10.0
6.18782892 14.17278871539328 10.0
27.33685878 14.150365343151378 10.0
8.16868206 15.458469175959932 10.0
25.21119972 15.372892910325989 10.0
10.28142906 16.64785973598141 10.0
23.09105736 16.60879038553032 10.0
13.03321866 1.7298823734885447 10.0
13.08018516 21.463837849064728 10.0
13.032055680000001 4.172252458427161 10.0
13.096347600000001 19.066994071816058 10.0
13.05486798 6.581049464709028 10.0
10.89366348 7.971409221753416 10.0
8.779902600000002 9.207616595488238 10.0
6.73997604 10.335780060128576 10.0
4.5681258 11.405771143474034 10.0
21.64854468 1.8161492701332944 10.0
21.633247020000002 21.503637674623402 10.0
21.75938562 4.311352627398631 10.0
21.655283999999998 19.06316461140357 10.0
23.87162568 8.042530934500922 10.0
25.94298252 9.281394581354231 10.0
28.05176346 10.486966271789164 10.0
0.353095638 11.674054728441284 10.0
28.048513080000003 12.927040894041221 10.0
6.79096824 12.864795560631327 10.0
25.92115428 14.14673510322278 10.0
8.85740478 14.20050249826283 10.0
23.80503762 15.37380047030814 10.0
10.98452502 15.433345259380904 10.0
21.683374439999998 16.618198019491633 10.0
14.41221474 1.6974802685648596 10.0
14.50134672 21.461358660820807 10.0
14.42700546 4.12399683010797 10.0
12.4092948 17.851018645000384 10.0
14.52371172 19.07224021122507 10.0
14.4901344 6.548421576570271 10.0
12.30241992 7.859779343948973 10.0
10.17959376 9.280641970637326 10.0
6.0485397 11.544959854882787 10.0
20.92221894 0.6086141511516141 10.0
20.99888616 3.0647193816737444 10.0
20.93563794 20.293550319887043 10.0
21.145540920000002 5.576292022031761 10.0
20.9580924 17.85179339132661 10.0
23.214512159999998 6.833705309495842 10.0
23.14234776 9.22494877758637 10.0
25.23290868 10.483070404548714 10.0
27.343359539999998 11.707346684859663 10.0
8.15180394 12.92124136439919 10.0
25.22118942 12.920820787822096 10.0
10.25682756 14.202959550897434 10.0
23.11252776 14.145871814459271 10.0
12.376701540000001 15.424867321011064 10.0
20.99787228 15.405255171152898 10.0
15.172326540000002 0.5134088954631533 10.0
15.065749859999999 2.8362577578744874 10.0
15.2268375 20.274070983684798 10.0
15.15479238 5.390109412035099 10.0
13.08766998 16.634954675747423 10.0
15.23053518 17.87859961421401 10.0
15.363264 7.809553646400236 10.0
12.717872159999999 9.39895680245663 10.0
13.8196317 8.529093762979894 10.0
10.85913192 10.567894059465754 10.0
19.49834376 0.6223692187835159 10.0
19.62224586 3.115719825548707 10.0
19.51713036 20.302470970443295 10.0
19.82713908 5.603275329793732 10.0
21.84577416 6.749213688718615 10.0
19.5334419 17.868018792958704 10.0
21.74030082 9.214190871456495 10.0
23.8309512 10.4631926273787 10.0
25.92896712 11.704491191257288 10.0
8.8443138 11.749227257694486 10.0
23.81958978 12.913604579183536 10.0
10.927777560000001 12.982911171966743 10.0
21.723273600000002 14.14257360867048 10.0
13.05060372 14.20920179272588 10.0
19.60092456 15.42017457183507 10.0
16.62819858 0.5385305984812501 10.0
16.415820540000002 2.818195100668772 10.0
16.6665471 20.290008622395725 10.0
16.62026646 5.6381167788645605 10.0
14.50677396 16.648346719386467 10.0
16.66779954 17.904542548337908 10.0
16.81019004 7.985819503421211 10.0
14.981180340000002 9.324736104404222 10.0
12.20613114 10.605502459701674 10.0
10.198976759999999 11.747943392353884 10.0
18.78072546 1.867032395278857 10.0
18.793577879999997 21.52453368982217 10.0
19.15738188 4.4189538243067 10.0
18.81510792 19.090723445007878 10.0
19.02721758 6.804287084708593 10.0
18.825425640000002 16.667781784370067 10.0
21.03076374 10.41987323993803 10.0
23.12538018 11.676002662061508 10.0
12.32090832 12.982800493920141 10.0
21.05420226 12.888148628464696 10.0
14.44683576 14.195101409588576 10.0
18.994594499999998 14.15193697141315 10.0
17.28868176 1.7569608643705938 10.0
17.36171094 21.498723569354198 10.0
16.772259000000002 4.053605592468048 10.0
17.3796924 19.095991720026213 10.0
17.91027966 4.748885081232185 10.0
17.52607878 6.811525428956471 10.0
15.205218 15.45510456334318 10.0
17.349276 16.72938518510966 10.0
17.476786320000002 9.237211905150053 10.0
15.340898999999999 10.606963409916842 10.0
12.97149126 11.75668695803557 10.0
19.65024684 8.04067154331798 10.0
19.6568967 10.423901920834403 10.0
21.74214966 11.6647799081359 10.0
19.7117655 12.861143185093406 10.0
15.025403400000002 12.935939408988155 10.0
17.46724392 14.574483617736568 10.0
17.64094542 13.194859631212735 10.0
16.62104178 15.576208481936895 10.0
18.93590874 9.238473634881336 10.0
16.78651296 10.489799629782215 10.0
14.37929346 11.743560541708378 10.0
19.00929576 11.60755935804181 10.0
16.32743406 12.692536248897405 10.0
17.5757589 11.61236278526441 10.0
