N=201, ave_E=-6.3653711442786065 
1
27.169219410478036 0 0
0 17.92703558892761 0
0 0 20
C
201
C
7.228289316499449 17.1962041290738 10.650311939853218
6.456900838997158 17.977769099644277 11.62556118388326
8.464923507186768 17.742028581649876 10.13048878618272
6.676020593542662 16.206775180849704 9.710486547287942
6.927471719186637 1.3471270893299652 12.03900345028456
5.173861621556743 17.515197800343174 12.102088519096817
8.752292340891394 1.263511809936089 10.311161361940528
9.161623800529657 16.946462596284444 8.838666202905031
5.709448443795496 15.114427121309578 9.943037572181655
7.6562045222144794 16.045091246873167 8.627216422865331
5.972147626275409 2.2455584049046613 12.713423289051303
8.003562992377441 2.005945647223055 11.332986410674245
9.046127448815714 2.184480994653185 9.159503524273433
10.647236717894597 17.598182048084322 8.904211261402342
9.883754483240752 15.638524006751878 8.117998558059288
5.63745001235773 13.944670122096463 9.043720009763593
7.68293903411439 14.822413638601537 7.808203857054899
5.340028567471227 1.8224265838992029 13.914280920419461
5.592729477208083 3.5115118770879623 12.105095173156329
7.753307312387527 3.382293804562972 10.78714203277963
10.397144053221146 2.170605469107355 8.637931044604677
8.279249061735563 3.545609098778103 9.343401419840536
10.971392674681008 0.9662564620218448 8.215851481086965
11.954646725146208 16.729473757516065 8.91476188382935
9.097640288817981 14.54250090491602 7.5509436024357655
11.29025063368238 15.556023788971633 8.196062230731648
4.700519480987395 12.868295051266072 9.272444384036106
6.715171438713162 13.736895779620793 8.060380132991593
6.421146146252968 3.949899605379598 10.999575808693347
4.297165249619438 4.101347202034859 12.39684994980366
11.230342504882275 3.3524632173429967 8.761422526794355
6.874084203045048 4.137954208707448 8.642577691787555
9.187325882091969 4.705775133951142 8.9329111410613
12.355066680817835 0.9545626567071872 7.6208619759287295
12.97775802048658 17.551249068912508 8.147135769217812
12.588586121650891 16.187682887947496 10.128520794434674
9.540987611158162 13.175636149402647 7.4598146512139
11.924298707064706 14.21755545783112 8.231212750009188
5.1623418725267 11.53531239301577 8.958823032410525
3.44079145380117 13.134224697192224 9.88951912992238
7.1682181723828835 12.338013338545593 7.765454702972416
5.88072320295915 4.48097010766599 9.72726914358375
3.3369778664337333 3.396563724891758 13.2633129833169
3.875852164221155 5.418141747148358 11.879541452255658
12.669822087688223 3.2342344176340188 8.683686852746668
10.631913278147087 4.617000453714772 9.052357306880001
7.196419822130959 5.237706133945801 7.656231160956047
8.602155234429093 5.633068976824011 7.971109840642882
13.266186453748215 2.215925015076164 7.7285548576966185
14.31633112240201 0.009529617724290961 8.769458493098863
13.500004755994789 15.097217167144208 9.987645385137288
11.021710069029215 12.68796700027705 8.105971941821249
8.556130576747742 12.085385553026425 7.241968897993065
13.245755200751535 14.16137212829542 8.908967241460115
6.360069741018213 11.23973143022553 8.288612509327098
5.18505533995386 5.738605435336027 9.775430274973353
1.8661613059597406 3.7091395174203003 13.27615959611662
2.489624251459744 5.95122007742071 12.290414396097013
4.756352226875927 6.224123340190954 11.071571506809246
13.490604206078764 4.2316946778019515 9.27616170178241
11.481087230821576 5.762502173776069 9.516912692292966
6.224440997721107 6.3691172040342 7.516394413970129
8.998880176260894 7.073183599753744 7.967611188646359
14.468424412661866 1.398247824015351 8.191087584924095
14.077948391294479 3.2372282325773694 6.760521583409396
15.92795487939275 17.596891301521918 8.989272238067745
14.735932546977434 15.038219293021047 10.763471465365672
10.46047550366697 11.072776947785849 8.083121370968975
12.509469354727582 11.97077801450641 8.745022595560666
9.162140015698455 10.769361870443248 7.355128423505519
13.73770825661706 12.815625420705802 8.967460329526936
6.8736494955344805 9.848378344097682 8.23066608563473
5.206165823435802 6.576228246193082 8.568996666985736
1.4735932546977435 5.032011327598446 12.913338450789972
0.9200367107408999 2.6651944539702788 13.155565435111559
1.9876539043975752 7.15849836212145 11.732816734151587
5.093603747418191 7.601045162669718 11.45051925118235
12.853322995586591 5.432088980836543 9.842177995094467
14.830372753648257 4.637347639108205 8.69735346210808
11.075151923609624 7.203280097022591 9.501606089808188
6.750437085507962 7.732665457963623 7.041179073255265
9.735193191504258 7.671946588423926 9.064055924493363
8.17462039778581 8.097229653700056 7.317463248105479
15.804090408100377 1.7035380692805528 7.797106570253437
15.304638647677562 4.072968704697586 7.371911019801328
16.84665486453865 0.7242289326464099 8.271447247969174
16.48821135285622 16.74277561792305 10.04143715958379
16.086242751678196 15.266645580495164 10.23118436395757
10.496501888605264 10.096721568111096 9.225923245769877
12.66283959829973 10.905069529851431 9.759139676614552
8.373634929967562 9.593186992489299 8.015170989224057
14.605846324440066 12.334159025893973 10.053846440883948
5.941582254438621 8.7556358897746 7.7446267903056345
4.891654939540108 8.04916727128614 8.574244644980517
27.228991693181086 5.326767646751594 12.745020489894877
26.670800080392816 2.851599770023948 13.125662893828803
2.6684330351659233 8.507812549793265 11.622226531199079
0.5862220964540614 7.2702017208760585 11.33118241823854
4.11771255541323 8.68157930575674 11.61872787920256
13.890888315653337 6.471462650211389 10.082382321230568
15.145100991299236 6.058459604313675 9.322682840048643
12.129942528782614 8.314182638397257 9.90203774409743
9.396094164042081 9.138306391455849 9.145016918350343
16.253333451052633 2.9593771079845808 7.587515449086894
16.178455082357356 5.114117150595735 6.80130274574384
18.056880573958985 1.7800434863598602 8.646951006783205
17.725361758712335 17.12558953588901 10.83765382097939
17.11810253566874 14.212571741937397 10.534747091093152
11.728843342625726 9.74377409143629 9.825067400173985
13.874994322298209 11.085451361947221 10.604938796773347
16.105532897459632 12.016151341581987 9.756953019116729
3.5104805015890457 8.513459566003776 8.686529507493841
26.739456697843092 6.280217034548709 11.735932721085987
25.927884944832705 2.4714928344319156 11.849365578785672
25.949457305044625 2.585616342991029 14.4173761442316
1.6475468988952702 9.444912481133278 10.900410891166977
0.32807647514734545 8.60770199209477 10.766970117362192
13.537878647852995 7.89806028830707 10.151098033099721
16.022123393869467 7.073488359358755 8.749559909868655
17.68246156126319 3.1331080098768784 7.950773925913104
17.407155860976815 5.500301351252413 7.557667574241577
18.832099911398156 1.6919769240292533 9.955884184981375
18.429560756612513 0.6059302174986354 11.002801128502643
18.626999474068455 16.03881678441704 11.311119835695997
17.21648227915408 12.905421941970742 9.920132334891935
18.234648776561745 14.670983968981865 11.322545121122133
14.908755951647487 10.040376895255097 10.580338899922808
16.250127483162196 10.52713176556566 9.965614810846699
3.103023718090107 9.879553458986827 8.826530253792104
25.575500169078804 5.983058492626645 10.871656345070573
25.737673239739948 0.9974512966501378 11.742766025766691
25.50532207534154 3.3884069236987964 10.749367524504702
25.796032723033655 3.686049495581761 15.36769749278643
25.52868760403455 1.2162919981948537 14.785007936053464
2.104832030793026 10.285654596182805 9.767886306605853
26.18284089978063 9.09732518809956 10.65769190890838
14.57305307661162 8.807821490373968 9.827254057671809
17.311683223968394 6.748883525950044 8.249854005178147
15.597251140728408 8.44786454278389 8.847850164395897
18.339413286608547 4.435184458771868 8.038841556638015
20.357407058321805 2.0682241688589893 10.195323180993238
19.7954932624743 0.21136692040769206 11.70903683386274
19.892568883427934 16.561210601478393 11.836190967361272
18.57833940210429 12.304328438673997 9.91718034726987
19.141829012677604 13.750251421134545 11.925843924772106
16.575234362627977 9.508858217078982 8.814612970428954
24.7903368973354 4.692670470935636 10.941520052126087
25.21042736786021 6.941921845171616 9.805496815568446
26.42475562941153 0.2080898583020361 12.73971784546265
24.6824750962758 0.3834897672076627 10.9751945775926
24.88075605953347 2.739914338304929 9.607877644202496
25.887728838544017 17.942632109889974 14.043567044978378
25.110172948235547 8.369021440263786 10.062319738688021
18.416166331443147 7.779992831918393 8.254117987298908
18.902848558743038 4.504293180967184 9.420918428138439
19.758434447198404 4.826191032001968 7.488350531560517
21.080543002151085 3.3446470298262243 9.942982905744206
20.929020265498853 0.9945220190349069 11.102348711091132
21.040631418837094 16.1162795051968 11.011055760556932
20.14298757873431 15.85210670875836 13.111722952280164
19.006091592502855 11.495962549898072 8.837135542656554
19.543335737125652 12.588848420505869 11.004386455188563
20.125028724703984 14.329025765123072 12.902514496175737
17.951219479671636 9.224571286709768 8.335024314718439
23.320128927376203 4.801935752850149 10.30722537844444
24.449200178417435 6.3875820506907965 8.779025119651848
23.41484082624113 1.0818679145348389 10.64129197767469
24.693967676086434 16.851628578019017 10.843065798286514
23.465212559028156 2.2896589124534232 9.895641770916292
25.232706127776805 16.621373732914833 14.409121512177308
23.983872957574178 9.095819317110092 9.555780529316806
19.776719331861656 7.766404138941986 8.947233747672055
20.33371549899587 4.539591514041783 9.544573909640455
20.795646567412813 5.351973058789626 8.429050587124923
22.5391225462026 3.4382082285648368 10.16099265827738
22.19016109209442 0.292995884258315 10.782003387659742
22.273380411148715 16.76235194078616 10.965463951727276
21.580347962426238 15.999198035765511 13.563759723518082
19.0189154640646 10.048730893839537 8.804991677438522
21.05782953472393 12.203757769020113 10.935397411132179
21.519135711094435 13.80980503336096 12.836750771928646
23.150756013571282 5.8175740271052545 9.165571498829902
23.547616801500133 16.065994170369855 11.286301273095681
25.586503702940046 15.303037462740685 13.959326064874663
24.122463145787027 10.501782937242915 9.216684617841565
22.615603898843094 8.555408829281868 9.724426488836578
20.807084808784627 6.776204328187569 9.025625418969085
20.09144756951263 9.191585541226141 9.3982318565985
22.260692385684024 5.118921596133568 8.164355697013182
22.477339741263172 14.903623109819378 13.230458454412073
21.866956057987373 13.215075627698287 11.591613326229524
21.848317973471787 11.143714227611236 10.115619515197508
22.162421319076323 7.081250765768762 9.483019501076676
23.618338279625608 15.115646159729627 12.439325771698915
24.94050117301711 14.605980537936412 12.908418471419864
23.34142959539402 11.494474605944193 9.837094016412024
21.432819101027345 9.598995352020111 9.860545918076195
23.013334101793085 13.663538349990901 10.932828088572233
25.554444024035686 13.348309356195198 12.394061961493929
23.960751951855865 12.760033683344536 10.386546379178053
25.275470479128895 12.762561395362576 11.044620953148549
