N=215, ave_E=-6.32228511627907 
1
31.984071324796496 0 0
0 16.15776066550724 0
0 0 20
C
215
C
1.4219446445506703 1.5821808505750015 8.908093086163511
0.3808247420429544 2.6774378888385426 8.971498128965838
0.7542707588312784 0.538420211328498 8.060909365949495
2.9027079962676408 1.2235868207971996 8.79828861594634
31.156675383695333 2.2187675368267885 8.160578038915855
0.21914046388540942 3.5081245224129356 10.136382783008202
31.39671583898793 0.8668864805693952 7.587342394397496
1.611552616178329 15.723456216579072 7.513294764481813
3.6713555951594152 1.1258663000682783 10.046906217277385
2.9403596450311915 0.11627253836984333 7.835050017210484
29.880766810406556 2.4338434890453553 8.776158791948728
30.872592862188494 3.9351256635202954 10.52908861649258
1.3697978146627219 3.7593777007615734 10.953159111469766
30.336347922356953 16.058584330542356 7.586722984565501
1.3711155584013037 14.324404193834797 7.865175859039301
3.507597149976457 2.0976328051174806 11.111896958414487
4.732043352503641 16.162607993706892 10.18109291088124
28.69140713412267 1.7180546915633848 8.369037602374295
29.743107367424628 3.0682779615764977 10.061152643413255
30.59996063821593 5.305126032587989 10.693795321818339
1.838220531250029 5.167607331563857 10.92793223831218
2.1405531638548005 2.579150230710262 11.550213879527544
28.898344075594103 0.35253971685643626 7.872777706977413
30.60904411447217 14.584398720703472 7.971770660127046
2.6370163157725566 13.502668959669094 8.041482421218767
-0.09351566742086649 13.717809542930322 8.09086627782413
4.627263534843608 2.407958756459213 11.940611003638125
6.087496311177192 0.28739647318131073 11.216351980082614
4.447864878782824 14.60501602331266 9.91604181277241
27.742887514914504 2.2441513788323006 9.452216468578136
28.22456762906594 3.4443175255448475 10.355090763686913
29.261299316987895 5.807147656465298 10.244329023729385
31.567894588718243 6.433228566732373 10.47148350211711
3.242481182765219 5.417163945042615 11.222996558280375
1.0537152297954206 6.290539382295279 10.29101000106786
28.214044869600084 15.355091588926838 8.487907980132473
29.207342188662963 14.222917299094744 8.599458059876174
4.106626821818571 13.867591984299574 8.631611061155148
2.7717140337498045 12.230762355601696 7.315590408106182
31.77646271782724 12.440958664099279 8.888046731600788
5.798520226757656 1.5144055076874645 12.112750626947811
4.980047841556114 3.7713667591753794 12.273853493251057
5.995734010546351 14.984222508371449 11.72477483218048
7.677968225945348 0.24256030311059468 10.780231148373904
5.482165777284094 13.933531805575509 10.830515964734897
26.391272644799933 1.626763343803269 9.649245105137052
27.45336770128245 3.363528722217311 11.660750379546158
28.21762708558846 4.859769675364612 9.891659589385725
29.41044104157542 7.214924869968947 9.736525581463518
30.83529943502378 7.600982245549912 9.873978254181523
3.91190779559321 4.782180108648847 12.398354869481906
4.150413015462217 5.804368521630832 10.171069733599879
1.6867343742343952 7.2973779226450315 9.31149781674598
26.84077678319862 15.040629250854735 8.242734306632187
28.69546911118092 12.938601534836236 8.97577768780507
4.844211490639703 12.527128001728428 8.312446067723908
3.9959939191061 11.541989333952452 7.6984419942633835
1.6658999501734228 11.537836789461418 6.781490202972918
31.838767688767945 10.988408295791508 8.327649763600132
6.924775330317715 2.464688654155809 12.561597515204767
6.476838411413939 4.022862303934 12.490421694510154
8.568468739770333 15.553072630361298 9.864461866762703
8.657032633268694 1.1010819109834569 11.510064860417362
6.301245859840807 12.876038685539392 10.320854292973042
25.707357247661808 1.6451185599192852 10.948203832813814
25.347888270042418 1.7485928592211935 8.647265236909185
26.464644104419012 4.384311410021396 12.12941838242693
28.325157533382427 8.233477786801194 9.844809682093068
31.47178245438723 8.60988897926485 9.067731892863858
5.32809850571255 4.973891938945091 9.94031141618964
4.267890509438195 7.160376269962195 9.738383810959501
0.8299034922930245 8.262884911212415 8.572541887176786
3.0566729188109463 7.886877662765398 9.322140403859336
26.065482894285555 15.876728734252072 7.2589425634710665
26.35397921763522 13.720136260466155 8.67862989840199
27.22253865853139 12.62131158864767 9.042617639675726
5.700680952575103 11.843880934226789 9.37180581038833
3.9138588239440226 10.344020642690415 8.60953754714226
0.9584282845045868 10.52781517026056 7.517968493214134
30.913276600913633 9.964070900641012 8.862988788397384
8.159680324168107 2.3424551947212464 11.939653733897767
7.530969434136583 4.742545121736358 11.37120443808119
8.153347478045799 14.339075440519075 9.251865542920346
10.167384449368232 -0.1296501947352434 9.99757867065675
10.00506528739489 1.0853975727054488 10.884798790011484
7.701828343153645 13.104008530769033 10.050003266437358
24.2194902337036 2.232792473084449 10.995898389877372
25.129884839892604 0.7446627157912322 7.612231407646721
24.25425691923365 2.3327120650399458 9.397933643301545
25.035116036557234 4.5261280753825535 11.683950093253578
27.505053960543318 8.194101324059352 11.048548225596889
28.4112906374601 9.50438260970733 9.097125704891226
6.630266001558989 5.447637481657762 10.293149780487486
5.595581294201822 7.796474991841885 9.999718450076369
1.6228877710558367 9.298468107786107 7.959438773471888
3.02543727475515 9.185056785674911 8.438298883588203
26.691986883395664 11.30459951425482 9.329742251797448
7.096977570330419 11.109946971517454 8.987039684750421
4.904245592516346 10.372248250573055 9.706118189711074
29.570969095554574 10.322821660697269 9.27360119702487
8.464584476107392 3.5226665070118917 11.161224505035126
8.469925816018634 5.955734423545303 11.658329050202905
8.727557510539869 13.851256488266747 7.9841025467822035
11.441182073949578 -0.05827538750425169 9.184180941278786
10.635215460636031 2.3648175354823087 10.458138035736873
8.37349384097437 11.869717193530935 9.281597214856074
23.014170505828645 1.304810267886638 11.181383479567302
24.083845787215136 3.4320376274390623 11.811661138613857
24.426842968102257 5.830010887806992 11.568458314579011
26.953104841691307 9.320216453641878 11.82461243510101
27.198678541323094 10.158109448473088 8.660498083319975
6.731623523587269 6.921402989719343 10.382626346218295
5.844097528395491 9.253291008965348 9.953262712676793
25.703934952030053 11.122049134255919 10.393832033178914
7.145913199457358 9.760079172238981 9.621202732743125
9.790196296234907 3.541474140426542 10.41551137729872
9.904187526436482 5.767480354031478 11.376497576645505
7.906526399632344 7.263769780460776 11.288034590639768
9.17834101179155 12.474259808830888 8.121048429637671
12.132645711920354 1.2872564766996308 8.852740371177113
12.621234385477946 15.077630522778746 9.388079395974362
12.062792500146998 2.3956142273107655 9.843458242459622
9.129949111877135 10.811093030248232 10.130413924627163
21.646563600051667 1.6399803920276539 10.73929378947755
22.759289441441343 3.793745257697107 12.295476527386132
23.32009814805032 6.153634676176436 10.548628181192761
24.73887956794697 7.045413802827111 12.494476013410477
25.76950229824589 10.084462375359706 11.486527286801579
24.261933096351605 11.549244168491265 10.317306763935257
8.289215813033532 9.627213906286517 10.477170810574513
10.337699629172775 4.822461405987956 10.379754536997229
10.814486180411516 6.916927290014998 11.105139760247276
8.80745372070921 8.364905012054429 11.020111683309878
10.617048508123547 12.168651923603484 8.01248277908449
13.520882343701821 0.8046871808875251 8.447646341052845
12.529216212276506 13.653420866678276 8.82351548910393
14.022360598003305 15.877875935259324 9.414995568673753
13.408330396709863 2.0125945107349166 10.735239470577227
12.552820456914207 4.023411667796627 9.514889481579015
10.463077188765975 10.373088454127663 9.763160204239274
21.090744408569353 3.035429234143521 10.722288174090075
20.61897935652861 0.5751839641707267 10.359314012541414
21.65529525152334 4.2363871111286775 11.4478423272943
23.53087317808073 7.615912016404842 10.43797906120469
21.96112694153104 5.609392823680155 10.611751674071456
24.072971202964705 8.181756794910905 11.712499255510043
24.389901365722114 9.582925484302361 11.86554979399736
23.48299302330751 10.679067967850372 11.254811699650986
23.67895942831454 12.34428678203755 9.254399492233048
11.581816035564708 5.137376161358692 9.670136109470675
10.250638987026678 8.227192417902312 10.99420909033557
12.168084062948228 6.5653667334548915 10.185935569567743
11.531984852440676 13.256053058631457 7.803797975687139
11.202580901866597 11.020093664456569 8.758984246607067
13.032837399356751 12.487864643311246 9.51111671260232
14.206588848834132 0.7432941534628638 10.62070496164301
15.326894915127781 15.069018436344031 9.036930331218326
14.177867152784465 3.2408590032447804 11.088472004768153
13.775251662947927 4.401988000189462 10.291066311052589
11.00703028978679 9.201198388579753 10.406895949635523
19.6418979616274 2.7876822898592986 10.886206539629658
20.79850594887469 0.29011097697311594 8.893114630226197
19.356727981695517 1.3587723411812325 10.792337795090152
20.45122290243005 15.421128356766765 11.097819462232795
20.12034768457503 4.761627437082322 12.068547288937307
23.32182528790186 8.347147633083038 9.204339915810966
20.773462421027375 6.509380092748909 10.555385379359972
22.05771883693193 10.784836669166785 11.483148687717975
23.442021427940446 13.786253817109412 9.345283807582032
13.67271073028063 5.92201317703639 10.59074804976838
12.358325319188118 7.796652727209205 9.193021608880887
12.570699552784767 11.185209820697388 9.093352935914535
14.393855586440816 12.288542507741548 9.969198438354464
15.559866890657597 0.8014572445304902 11.327733129872136
16.06755005479609 14.086788165487848 9.957373341561848
15.301243689925293 3.167260403413395 12.059256141457396
19.160409751903913 3.631456709572752 11.927603397166248
21.690861538836515 15.466240824544862 8.470339264897728
18.141397239495895 0.6858581616251852 11.585182380042855
21.21071666010867 14.212851014200133 10.606965325369682
19.05828461216384 15.346851130987428 11.683893783268857
19.677464248940574 5.921835441669069 11.246984611773968
22.182456715098635 9.14661747305167 8.936754868389428
20.480296423264292 7.437401076572318 9.47659869196482
21.384262231117017 11.971931187500935 11.86892839308097
22.110172713904596 14.403173277079144 9.429636164702707
14.871889516461225 6.721305281637702 10.384090405821187
13.599851015802743 8.57611925947394 9.126632136888045
13.624606687008136 10.10495041588357 9.252316022798158
14.876175382018749 10.885887304368866 9.662872121440923
15.158818620315975 13.240089191093935 10.634951387778877
15.876924989700305 1.8212866244553105 12.286748479753484
16.762531940612593 0.0673177551054895 11.005696327219827
16.81968747607001 14.818540830507338 10.937899105608818
17.110358716269758 13.184781176335905 9.339990669017716
16.456124537321045 4.094328079357538 12.192767115244528
17.799423548891173 3.3603294856055403 12.45815607326172
17.384590143808563 1.8261824259369592 12.493687673624304
20.675942987558074 12.847681815571427 10.956706640507548
18.139862004072306 14.284817680204302 11.229246966585041
18.48314704160135 5.678758090217179 10.45678659610343
20.854606009978383 8.836146101863948 9.455426137707562
14.862614135777033 7.808948783075656 9.35429340513831
16.180901603571172 6.37497983953322 10.969714246979436
16.065631010516604 10.782413005066958 8.803525444525931
16.802991790838462 12.068538438520003 8.45462877915896
18.401779564151067 13.313461582276004 10.154852457998576
16.293005773564584 5.5568477859959255 12.192541875305622
19.525252053505866 12.38920535668766 10.204348934573389
17.410113432725748 6.628155791401053 10.2487775125228
20.095240188585066 9.831318739013206 10.199224725963258
16.176295897300403 8.2440611200371 8.745864020165733
16.271096684707096 9.561758817830547 8.108547613028332
19.46400255691888 11.023099007940353 9.596933129325894
17.39684004312596 7.553429955911325 9.185645000881685
