N=201, ave_E=-6.409436318407961 
1
29.364065609937146 0 0
0 19.375258496456077 0
0 0 20
C
201
C
2.390270177527616 0.7876255706652857 9.572182698025042
3.7306458076112943 0.8443292021810139 9.281437090647778
1.6096294296939975 1.9782526430051584 9.702459890519833
1.8766867971966927 18.908527894534945 10.19509083429379
4.482600799750565 2.0832277935389576 9.651235252926643
4.620670636248489 19.07089256073525 9.482908848655597
0.16405527271878226 1.827420130661947 9.98765173096081
2.3439601096541836 3.309797907915606 9.804436504690361
2.7005602588278212 17.71338444943955 10.208325342737705
0.6140525308153225 18.90856664505194 10.884703256424945
3.815625413486453 3.2765112138186945 10.047856927855229
5.8640039023044475 1.6635441942989215 10.072789796441533
5.871433010903762 0.18794271995181344 9.91799331374931
4.084570890407867 17.79309426289397 9.773713538659841
28.57390796843935 2.467904175727596 9.182414607826338
29.089511596484236 0.6705970718208414 10.7779409494689
1.6312384455763504 4.594280669938161 9.483440592298432
2.075073360863989 16.427526044063747 10.510887475511318
29.4785854658159 17.626157035688504 11.42418672339544
4.519599522419086 4.427401568508185 10.62343987991158
7.0597086539410885 2.3997613915955602 9.758824716660438
7.099908059761093 18.871559901323707 9.787538873373574
4.791951230951253 16.555344624364867 9.452304047879043
27.18536939794225 2.705909851098063 9.608577596245809
27.804804361983877 0.6329102565193845 11.473461634298232
0.12308006828536375 4.644636966770451 9.679063170235054
2.4856094257499595 5.854001851602247 9.444032480101598
0.7200127615687808 16.400536308978182 10.955720574057022
2.7262009609184186 15.217928656129992 10.104694415011686
28.191881474854064 17.596261011828474 12.148776060699799
6.139879298709808 4.765616080822322 10.367848435588463
3.8226140611016173 5.818235124417789 10.109834603559104
8.196744002489075 1.717808480769946 9.295085177480566
7.199892703162928 3.863058414281909 9.841894890196798
7.117086038142906 17.4118666767177 10.06050061002933
8.365440559418165 0.24731742460386322 9.513159153670259
4.079402814860518 15.305330447207506 9.497915835908962
6.2194265524471275 16.540793805234028 9.303179497377066
26.48856012101844 3.913085331719759 9.34311935321674
27.473137240919634 18.840307609368924 12.29346941417814
28.592612878232877 5.1239033609387885 8.571145749073004
28.96092635317832 4.200071660569266 10.957197639731572
1.9604389851293555 7.117423707639154 8.88434275470334
29.383152252583606 15.145077684183319 11.114002931741169
1.9423301658677075 14.07066147477934 9.927151120931484
27.618430637557605 16.311351994118994 12.412461824919415
5.38155230433318 6.038861192916933 9.549258638756118
9.187722488693234 2.727978270525526 8.901063138139175
8.660725603191691 4.3617194422051995 9.106729762662699
8.237442597424447 16.911868755958157 10.829697330704924
9.611710232035115 18.963514878147887 10.036217650339822
4.638112891220793 14.190361821770447 8.75956024651785
25.089744127557864 4.069831172956088 9.842426633839636
27.145199356187856 4.939819029963958 8.58071713464405
-0.1348756134408755 6.2094215934612365 7.825286666055206
0.5206366288904296 7.274537678786916 8.475254645481598
2.9056007197623295 8.28249675154805 9.014029120928313
0.637670048785395 13.975335202976774 10.647545591720139
28.02016041916715 15.145872069781673 11.721254171859748
2.2693959378508706 13.03489890607579 9.01332012940453
5.773122119241693 6.281342553000081 8.13647486236816
10.56771611609784 2.5298856276577593 9.418095206856599
10.122967978369731 4.81674738799447 9.769695920025079
8.164972083499123 5.278653550549983 7.958813403033993
8.649302981669425 15.509875051154593 11.089129145781847
9.453203005872677 17.7951286650361 10.86940085603667
10.935941498846452 19.309711996962566 9.600660524230253
24.076448951490153 3.0422449633380437 9.41443208398373
24.742455323589137 5.156279417886366 10.805946114658251
28.992874456561932 8.337716238262951 9.079965332639961
3.5373127996354685 9.003701998561635 7.9007942633379
29.262524671057985 12.780598638309804 10.555199445747643
27.104471397186874 14.086994817691851 11.388559899325436
1.3776768026279822 11.895207450797251 8.74183545842332
6.7122730296443125 5.276638523666351 7.630609410150292
5.778172738526602 7.634084350705651 7.56089191031181
11.033606381065102 3.7152058166954527 10.092582476480423
11.410259250643767 1.338431231780088 9.38790398446892
10.8385702572839 6.00695014217327 9.292426459266387
8.920362671314757 6.473118861598004 7.63894006055472
8.075499775585644 14.319904800077751 10.50391572552747
10.107698664252565 15.57637093831443 11.334676543518064
10.58659721028503 16.975361478051042 11.236185804339463
12.149382146111494 18.525827788712945 10.092877889615334
22.844362122562803 2.942675509924756 10.150719781430478
23.4711087389413 4.96113181431006 11.547137670144494
25.5871713989902 6.378993855822221 10.890138858107267
28.356878159516302 8.186395469405628 10.335530238629442
28.987265920030435 9.658450108932376 8.458829675180667
4.514372718740518 8.265020268384248 7.052072326744849
3.108186344811847 10.342009228687346 7.6442574969830765
29.475061777942706 11.805500003958658 9.485981145258648
25.69009244895303 14.299657654948955 11.116188988939498
1.7370577288148807 10.807209185187256 7.805612151270278
7.041444205131708 8.341959419873675 7.41560773056365
12.43688571249839 3.853603288135638 10.357508975866661
12.84287328362138 1.453570642921128 9.901863756583289
12.302691932660975 6.17659990556824 9.558770941700182
10.220897137178873 6.828674230266469 8.308641637393023
8.362151784069852 7.714336671397973 7.056976184784336
8.882365570415498 13.177171429215267 10.071253648140011
10.953530574146804 14.532897016729292 10.751885510969938
11.916143372971762 17.250160769306277 10.767306076612176
13.278224920354308 0.008600115364080455 10.285723584083811
22.494254368295522 3.9103340450132618 11.216688537435477
22.796175690896895 6.1051827027503025 12.327678255200585
25.253448793333266 7.7799994224424625 11.415560659856098
27.358705477237706 9.141653839056403 10.831469809514374
0.632563637775827 9.949350239998166 7.484320825743442
28.485022941838068 10.789170819527056 9.246696505982502
24.834335484882633 13.264224465639844 10.395912683404802
24.80696817573417 15.084801255000844 11.95291715225525
7.2400627449173225 9.822171043227428 7.65170190798278
13.13254979086341 5.073547064106499 10.118637914979384
13.148729391014484 2.654216661429518 10.677736814107824
12.937337482688546 7.481872319957493 9.32143602911443
10.530776121560539 8.238573040536584 8.157449194946686
9.456315596827329 8.837733534280993 7.354516294264506
8.355721053701274 12.062280304812193 9.232280344998948
10.34410875647817 13.27255582679332 10.277215685798442
12.395717292513256 14.746005484931812 10.561698534715639
12.925298215788473 16.146022913368736 10.62586226761783
14.572563568374727 18.887602615358773 10.892088584797662
21.10366031320573 4.288635967156567 11.660280900814573
21.25732246854253 5.58898706588772 12.299436759503301
22.7560056491425 7.553095770190466 11.92981584510538
23.885611889091173 8.290014351844675 11.361440973540805
26.31061388342222 8.707648048735786 11.755581178136158
27.39913979558259 10.463337097392152 10.275147793854078
25.215334236171564 11.807127525672362 10.513191697963606
23.14839765788809 13.61278536599109 10.7043830788766
23.421483468060508 14.654806143188994 11.866892847369801
6.401160754507028 10.615956008568737 8.566300973660496
8.72189095185719 10.089375233152055 7.717283623932541
14.619634165547456 5.133087233466108 9.911376059527353
13.883124671919013 2.5853763679916093 11.851944942743412
6.916441377830205 11.77110892012745 9.216741614102745
9.307527876381776 11.129962241221222 8.56937327026355
11.23066862537339 12.19486519870344 9.772590968747188
13.29625445663881 13.645936433278525 10.1487109721131
14.342965939370629 16.364866458086208 10.164781446652142
15.90316683742342 0.3297591495062838 11.07743078563946
15.138732117399927 17.46111858381569 10.68695370391698
19.861296061314896 3.5772152256836924 11.280793187710692
20.45262961456781 6.741001185570005 11.861929906703335
21.34494484032258 7.891232781470617 11.55251418919983
23.48546776702456 9.50709058955806 10.552481644906482
26.528553978379176 11.48402571498546 10.909931538146157
23.94736451906887 10.952659250720151 10.85392120776745
22.889024866355516 11.973328493054963 10.497593884440423
21.949550951231185 14.053126865840046 9.686684829115702
22.375271174444055 15.25611729062651 12.577834097841375
15.731827514589435 5.108790659311553 10.893801980980136
15.279591540130793 2.6356745390484093 11.907541694733258
10.674190217999472 11.137150462123408 8.946202265153243
12.688154021922621 12.38671900833535 9.885970529925196
14.704261402635296 13.910350585979662 9.811526419928168
15.096506591052835 15.26512678582736 9.540809823097725
16.15875166449231 1.4395778312349872 11.987598654293546
17.1235080401068 18.81244598765102 10.692507470853261
16.629369544022772 17.401500913422097 10.500311685281584
18.531808626759382 4.23411398974754 11.53337141805774
19.843442709424053 2.134998484241488 11.092319607638863
19.28928406323332 6.522273892403513 10.998496395991825
21.100547722251076 8.602304768290555 10.310124709027281
22.21829087969333 9.359974251794469 9.730642303590137
22.161588869000543 11.724995804905886 9.22389061196754
21.55093376057629 12.957959754586362 8.712175979678474
20.84114556665289 15.005575823008835 10.013116343189957
21.66483697107724 16.358240119680417 11.97838176448439
21.977534905757455 14.73255905553527 13.889054838447677
16.03295600741934 3.925698625000951 11.757530904826552
16.92427285494337 6.06249900828261 10.747395231319327
15.690101177357715 12.847133275986634 9.89359218880584
16.423086983112967 15.502841832320378 8.935685557550492
17.516281781705317 2.002781720261672 12.029310988942672
18.49213777412036 -0.0771735921172342 10.946976345263728
17.282132722531678 16.428669184315037 9.638000744482728
18.264654357840175 5.613458017368744 11.25497407971966
17.417559793124706 3.4780139021818375 11.947540633199907
18.68115426445152 1.3083085173956477 11.468557776258741
18.814525850451858 7.562783399438693 10.124250764542648
19.72868794102042 8.643341565786049 9.682076384211122
21.88333498328078 10.390544251220968 8.743194358843901
20.307894135176433 12.965535480658477 7.958636155153048
19.56178259209354 14.956207664359864 9.281082594885888
20.982680362892786 16.26058881685828 10.748695049112921
22.693812558180653 14.951441350769734 15.128372022017174
17.252210739675153 7.303833069633558 9.88650227356803
16.08478358322088 12.026668579695706 8.800031846000358
16.923832393959223 14.73819725575774 7.816306106753977
19.661150590117565 18.492773597717992 10.540310623748237
18.798816075350544 16.21796324816608 9.615844759364567
19.55922791838547 9.456114284453886 8.501251001353577
20.69441333080003 10.22569955193312 7.998103349976869
19.222422085839494 13.89095595222471 8.307814480615278
19.73755588883462 17.058713840102797 10.44063823203
17.255734427548344 12.245415248120695 8.030067051174004
17.848242543425656 13.61731917647926 7.887618837520968
18.259574374489656 9.842534439907205 8.01529639442856
17.969545498460306 11.099213705987346 7.4069225843973285
