N=93, ave_E=-5.253081075268817 
1
17.04 0 0
0 14.757072880486835 0
0 0 10
C
93
C
2.0873318399999996 0.7861417379038708 5.0
3.3385449599999997 1.1379916751787422 5.0
1.364491632 1.8594649683057436 5.0
1.644767256 14.24528283591867 5.0
4.15356816 2.48044259511663 5.0
4.16345136 0.12011298114979052 5.0
0.0860020728 1.8554805586280123 5.0
2.11127304 2.937233029059219 5.0
2.5050163199999997 13.129057843238646 5.0
0.34200813599999996 14.119095105717626 5.0
5.4901176 1.9139923525991427 5.0
4.24561824 3.885404475776259 5.0
3.8242531199999994 13.589227646870867 5.0
5.3887296000000005 15.35193048829926 5.0
16.59578424 0.5926160084418783 5.0
16.51867824 3.1113074607574416 5.0
1.691139912 4.318849220421918 5.0
1.9251110399999998 11.744682079247296 5.0
16.84167144 12.846400869285802 5.0
6.86105376 2.3208743660599254 5.0
5.50623744 4.491344645321929 5.0
3.1949488799999997 4.7651031043278405 5.0
4.900056479999999 12.827467544780136 5.0
6.446572799999999 14.668958398317448 5.0
15.28987272 0.5640846837347451 5.0
15.18137904 3.3238830956008547 5.0
0.197747496 4.2074038060284815 5.0
1.213539384 6.062544951980243 5.0
2.59355616 10.465081532707403 5.0
0.527693016 11.693209409040158 5.0
15.53884416 12.772187549769834 5.0
7.69766664 0.8001358701164364 5.0
7.02070152 3.8567905114609946 5.0
3.46932696 6.070248144023857 5.0
4.695815039999999 11.43107952346407 5.0
6.186167520000001 11.63475664336055 5.0
6.44193792 13.24462048096574 5.0
14.487169439999999 2.1760484528108277 5.0
13.664512319999998 0.9753097037442553 5.0
14.86496328 13.94724899202436 5.0
16.55909712 5.447425883102911 5.0
-0.01241365704 6.924963048188774 5.0
2.33911488 6.7857743367800225 5.0
1.86702168 9.265700434345835 5.0
3.9553418399999996 10.368289891684288 5.0
16.89100224 10.462912242993971 5.0
14.827509359999999 11.556145716126196 5.0
8.48605632 14.270148503722291 5.0
7.42838352 5.394270906587396 5.0
8.55028008 3.6102293377738213 5.0
6.736048319999999 10.376952293465134 5.0
7.806552239999999 13.076803048168843 5.0
12.424920479999999 1.7883211199489166 5.0
13.521614879999998 14.19220164476756 5.0
15.220554 5.710618277926393 5.0
16.64184336 8.241515305221407 5.0
2.6009685599999997 8.09614338027573 5.0
0.501902976 9.292705877717125 5.0
4.64094624 9.218330230399472 5.0
15.461124719999999 10.266141433205558 5.0
13.54627176 12.108060241856403 5.0
9.73387848 14.291870915002368 5.0
6.37701552 6.463302780195623 5.0
8.768579520000001 5.852433748307871 5.0
5.9764392 9.203189473624093 5.0
8.138610719999999 10.302281504689871 5.0
8.40993864 11.851729885922348 5.0
11.5857516 0.6834384134848346 5.0
12.1231932 3.1967213985896996 5.0
12.2167428 14.161078978062614 5.0
14.723037119999999 7.027819846165767 5.0
15.231289199999999 8.581901948282717 5.0
3.98620128 8.098430726572207 5.0
12.277814159999998 11.640438116419537 5.0
10.36667592 13.045724652682537 5.0
10.288411199999999 0.7846896419324308 5.0
6.70414944 7.948853035855592 5.0
10.08183528 5.259981543374966 5.0
8.7488472 7.26315088739089 5.0
9.847705679999999 10.333300871884655 5.0
8.05456944 8.72777561370633 5.0
9.75666096 11.831984922408257 5.0
13.08491376 4.2661517131657005 5.0
11.616900719999999 12.971083378053036 5.0
13.404516 6.888985304506147 5.0
12.212090879999998 10.203630472483818 5.0
11.26246872 6.116600109941467 5.0
9.74698224 8.416563703729741 5.0
11.05079784 9.427482224334613 5.0
12.663258959999999 5.644580376786214 5.0
12.679038 8.004383901104863 5.0
13.2823392 9.330174085760682 5.0
11.19960816 7.680421880159535 5.0
