N=114, ave_E=-6.3654611403508765 
1
20.5258095053937 0 0
0 14.220697971928939 0
0 0 20
C
114
C
6.154520299525763 0.21071945840844863 9.71246520937937
5.182643745254876 1.20803976029658 9.218169024980465
5.8837848721496195 12.963104767479374 9.583354976631359
7.3088302486805885 0.4733288216466688 10.570964419340179
5.049287560898334 2.6114036513771985 9.696911849500633
6.7400190156671185 11.954558646612202 8.795163891624238
4.965521732306822 12.444930974778229 10.571831707065755
8.66759778631864 14.037962002989651 10.376807607173664
7.9520064895321 1.8460030244340675 10.863992032222818
6.105668872902926 3.4413520264149153 10.327025291725374
3.896578624884929 3.4947934093934245 9.418223393680922
6.092552880628979 10.605014409076146 8.84841535797485
8.30264889331274 11.933241820352281 8.948095627234846
3.7086853646725553 11.802567826688225 10.278919732546537
9.052990385591913 13.108084783303191 9.295184175011972
9.390516797098607 1.1830739029370616 10.557897284274773
7.5157304084949565 3.1103510604202973 10.319161883013447
5.534599800843862 4.864218182694238 10.582643894044658
2.648137313338368 3.0674756560349317 8.789497611817115
4.022135001629422 4.972224383791038 10.027117196219805
6.735605966623458 9.588590021532527 9.628800853451754
4.683784471035788 10.427924057231715 8.454261996289585
8.850934316820817 10.655213472917056 9.193538053573992
3.5797217035501667 10.76412979868406 9.279977730223468
2.547355588666885 12.204103454623612 10.990211305885559
10.361798102893836 13.42398336805162 8.633559278757826
10.261344791174439 1.6095981413487208 9.4787022577447
8.460553945837734 4.2096678964422924 10.19901362342976
6.628974386242938 5.954192020148675 10.675154584773196
2.0464642593067626 1.6637221178298822 8.881777025818828
1.414499215607097 3.960094647034939 8.93369865099022
2.648650458576003 5.679746769988418 10.467178988179104
8.08889311312357 9.722349906656488 9.95374465463573
5.943391822953283 8.496767493341737 10.198030697340773
10.173720110395914 10.180412809030292 8.736361783829913
2.3812812639587446 9.978450456432958 9.284140711306254
1.2503584221543649 11.624652674361423 10.743785953457422
10.685880109174498 0.648496535125295 8.466577481992822
11.606955284919534 12.581591882288466 8.455071464833459
10.72138975961883 2.933331812065726 9.404173332526526
8.061922199433484 5.50562854402012 10.677814267131641
9.765235975429075 4.1073926366281786 9.506513284144969
6.583509718188491 7.434282265067038 10.982405716355338
0.5897455061280212 1.6819530526298954 9.059860105471259
0.10197427420374643 3.120575742262114 9.128607112518903
1.4257145179208441 4.957122002544849 10.029140867579486
2.419520847067293 7.118170369849031 10.996455777509734
8.671928732124279 8.979645513676557 11.03531026761572
11.348350610961079 10.19190313299161 9.526634359378427
1.2764672518452256 10.255114135476834 10.204853360782
20.60873377579549 12.458369534361701 10.708284975890347
11.939637605382956 0.8005442378411592 7.798303379842565
12.571586228435018 13.65127278373696 7.870635176155936
12.124554623217046 11.536370581351688 9.373066612769058
12.338823548643854 3.2330045804281844 8.926644710822167
8.988600921173493 6.56317919009856 10.965811611205911
10.492916974014292 5.368754326040304 9.262053783894814
8.142239692028088 7.723303730648523 11.31972282242426
20.30283763673661 0.5013236876742081 9.497262215072116
19.905150077569605 3.7251402751427296 10.295456018514258
0.2338341270473461 4.77805497368232 10.863471659587468
1.044751388338836 7.793269564670413 11.185987055139822
10.028089491955145 9.358300038575107 11.50214234070459
11.315345109276407 9.138561813512862 10.717246949054676
0.5186810484584471 9.215097609997784 10.776106876030703
0.2701524943861897 13.902566737598915 10.586344321673796
19.238225475120352 11.991233826681807 10.920886107020866
12.851640373326608 1.927359637531473 8.19286147579977
13.904265462191713 13.883596326504364 8.551224764009433
13.424536242431651 11.81653255209666 10.047643005725199
13.902561820002765 3.782421246573659 9.296224920282668
11.882144812958346 4.9849234670799705 8.750238387439193
10.238561142623452 6.620531265019349 10.083779994291032
18.87354341763802 0.43882798629697195 9.068243886818532
18.371297384850543 4.232293026915631 10.334137051075128
19.909481023375243 5.88883369226969 11.23062346341634
20.37982994819134 7.14308503269585 11.777361645621983
11.397653605393035 7.59088059113392 10.223586775654525
12.540304894748797 9.52493817741017 11.558169127777063
19.701821408609174 9.44213105311963 11.330130275131225
18.76116461059599 10.597193025191586 11.045139528505626
18.27634499007859 12.98443581443727 10.75448250207291
14.134236631890145 1.1597107182389796 8.571750573514826
14.335081677900423 12.934848240609153 9.56410118912348
14.405587833551449 10.778976207366753 10.571195696066997
15.047532525832636 2.9487043865733815 9.633657664714999
14.17824396746971 5.226760656790593 9.267315329429998
12.939531889628705 5.932121496896241 8.924042847645431
18.107848619848816 1.6523171180563954 9.216434449529306
17.99331460280872 13.603235265987784 9.517383290305574
17.323639541885743 3.2962440243093525 10.774603577306365
18.499152652259642 5.612653516956857 10.895908220524163
19.24875521539662 8.191847287427636 11.951166105828225
12.73002495200715 7.008656774767205 9.89540510029505
13.866436395273272 9.566903457125335 11.069597042366986
17.238375329200338 10.260404235122392 10.988245453707577
15.521411889883662 1.8045639105438667 8.664897275242122
15.763103296809673 12.596310304689412 9.732759742157942
15.987368291465604 11.193196697893098 10.4920412363124
15.914275883816895 3.584682441273987 10.733956692567517
14.927784953178172 5.898674415266265 10.411499116196868
17.05887712507567 2.0680450025677657 8.302486644313081
17.804620836025634 1.962925603159267 10.576861975874124
16.65544233924716 13.4895976684941 9.000826720950112
17.38903477096993 6.4240723225371505 11.376038705405257
17.830421778573914 7.866762131789342 11.80147224439311
13.871814157363685 7.057931493239939 10.771307883949163
14.549884274374367 8.310362584325693 10.900533755060586
16.932314983665414 8.875649549407841 11.168120927992874
15.986752517180442 0.2712697683031249 8.135273570821255
15.486908004105095 4.827215926571278 11.365862529425115
16.203751375271466 6.756139840879664 10.273484729466233
16.456362512854344 5.563705874537478 12.23361280845878
15.902904585350909 8.205484936782717 10.41785922618445
