N=192, ave_E=-6.9763307291666665 
1
25.56 0 0
0 19.676097173982445 0
0 0 10
C
192
C
2.3450942159999997 0.19746340840893561 10.0
3.6912218399999994 0.15074920554235346 10.0
1.6281515519999998 1.4739128279864162 10.0
1.666189944 18.698037735658126 10.0
4.2645582 1.2783816123199656 10.0
4.485038759999999 18.68965571826201 10.0
0.30100734 1.3707412124546392 10.0
2.22636546 2.9246550839407504 10.0
2.396030184 17.48284197419297 10.0
0.265762656 18.740380696776533 10.0
3.5635751999999994 2.556712066787279 10.0
5.67973872 1.3745996951104573 10.0
3.82791672 17.48414059660645 10.0
5.96427264 18.790121870432365 10.0
25.17358392 0.2612572506664215 10.0
25.090335 2.3998738962134647 10.0
1.7849698199999997 4.499510225649131 10.0
1.6366962599999997 16.337299596723714 10.0
25.10960724 17.62108623293737 10.0
4.63635396 3.3651045191803477 10.0
6.604269479999999 0.3741390201535588 10.0
5.841456839999999 2.676264033216396 10.0
4.57058808 16.335548424075228 10.0
6.7257561599999995 17.660300694605116 10.0
23.743783079999996 0.4229967370462746 10.0
23.649773399999997 3.0714977971501813 10.0
25.09777296 3.7824345402405153 10.0
0.4177143 4.739420878491499 10.0
2.55947616 5.747781506463752 10.0
0.2243462544 16.42078527703292 10.0
23.69703384 17.693435242246103 10.0
4.809369599999999 4.710300254674006 10.0
8.09086464 0.5711636515955146 10.0
6.88711644 3.4860731646059917 10.0
3.9150251999999996 15.090917221237794 10.0
6.04189836 16.420017909243136 10.0
8.17288668 17.75051560014783 10.0
23.013585 1.7550212930916687 10.0
23.01120792 18.938204177763755 10.0
23.04065304 4.405419128963148 10.0
25.2776898 5.871308044522014 10.0
1.83031326 7.0061466251286255 10.0
3.98541744 5.805648908252435 10.0
25.085836439999998 15.300802149792666 10.0
22.98690036 16.525166972540898 10.0
6.2297388 4.752603863598067 10.0
8.843172119999998 1.8898301052694917 10.0
8.863160039999999 19.026412121394717 10.0
8.231598 3.2307561276763956 10.0
4.69340388 13.948523019316372 10.0
6.787483559999999 15.269123633342554 10.0
8.91272088 16.561823541576025 10.0
21.6247824 1.799266932806803 10.0
21.60709488 18.996681538564832 10.0
21.64257216 4.370907254519983 10.0
23.809727879999997 5.733437631623919 10.0
0.39247124399999994 7.039477933741351 10.0
2.541458916 8.210146687301785 10.0
4.68333324 7.015669856160832 10.0
0.268395336 14.16649482380975 10.0
23.6878578 15.313296471498143 10.0
21.58884504 16.55660937582492 10.0
6.88762764 5.8399443456266855 10.0
10.30382388 1.8671396300084553 10.0
10.309881599999999 19.057677439804177 10.0
8.9756496 4.429148502154971 10.0
6.120878759999999 14.042515735516487 10.0
8.2211184 15.325357919065794 10.0
10.338534359999999 16.591160602462434 10.0
20.912220719999997 0.5775308366410153 10.0
20.931799679999997 3.0839527666613122 10.0
20.89136376 17.79277985687754 10.0
20.939467679999996 5.591120420764504 10.0
23.079401999999998 6.904755696391093 10.0
25.236512639999997 8.200308638714793 10.0
3.9678066000000003 8.210343448273525 10.0
1.8225123479999998 9.417865531840826 10.0
6.146617679999999 7.018208072696276 10.0
25.17026112 12.960900997765497 10.0
1.7034973199999999 14.24262164377589 10.0
23.00545692 14.128421575778093 10.0
20.8891656 15.354852388729594 10.0
8.28338256 5.734027914539138 10.0
11.019401639999998 0.6240943206032448 10.0
11.04439932 3.1101219759027092 10.0
11.0392362 17.829751243467456 10.0
10.36447776 4.3731503295978165 10.0
6.849441000000001 12.907952620270311 10.0
8.94538656 14.134344081027463 10.0
11.056233599999999 15.37376111811379 10.0
19.51028028 0.5944168632357271 10.0
19.52418492 3.083815033981095 10.0
19.486535039999996 17.812770771606306 10.0
19.528018919999997 5.570283433857256 10.0
21.65248944 6.852161488645039 10.0
23.78687724 8.149485279714398 10.0
0.376560144 9.403462628709471 10.0
4.67502624 9.401691779963814 10.0
2.535012684 10.633317082569244 10.0
6.8329547999999996 8.17766145086754 10.0
0.353453904 11.789819046164412 10.0
23.73440256 12.93512531046758 10.0
2.4841355039999997 13.081003894915487 10.0
21.59784216 14.132002625463759 10.0
19.488221999999997 15.367858288961598 10.0
8.98239744 6.896727848744109 10.0
12.4557714 0.6262626265118176 10.0
12.46438512 3.0950500854674385 10.0
12.466736639999999 17.835968890174435 10.0
11.078982 5.5901759681001515 10.0
6.14252808 11.753575675169936 10.0
8.25355404 12.922257142915797 10.0
10.355864039999998 14.147900911980337 10.0
12.46852584 15.376259982454886 10.0
18.810651959999998 1.8421352457197584 10.0
18.7941402 19.03892611919737 10.0
18.82028808 4.3224253510832895 10.0
18.78320052 16.604009093917046 10.0
18.81793656 6.793998945398746 10.0
20.93724396 8.056259931304067 10.0
23.06792556 9.32741451313203 10.0
25.21644804 10.579011054369053 10.0
6.11901288 9.379516818448735 10.0
3.9626946 10.62469895200704 10.0
1.8142027920000001 11.829407353678464 10.0
8.26357356 8.134846263416955 10.0
23.046378479999998 11.731538446335076 10.0
20.904731639999998 12.923988639467106 10.0
18.78613992 14.146267795914897 10.0
10.3788936 6.849229750166115 10.0
13.16840976 1.85829522432875 10.0
13.17444192 19.070565283453135 10.0
13.179426119999999 4.327344375376786 10.0
13.178250359999998 16.60221856907421 10.0
12.47959332 5.569673474844863 10.0
6.82960644 10.550126543717647 10.0
4.72154544 11.796725356272479 10.0
8.957246399999999 11.720913353861125 10.0
11.064106079999998 12.929753735939084 10.0
13.17229488 14.149868521697735 10.0
17.3997144 1.8492009322149354 10.0
17.392480919999997 19.074913700928587 10.0
17.409759479999998 4.318982034077843 10.0
17.3828448 16.584451053326106 10.0
17.407535760000002 6.785144701670454 10.0
19.5217056 8.033966913205946 10.0
21.640527359999997 9.294279965491043 10.0
23.769930959999996 10.547450594501987 10.0
8.960160239999999 9.312086833433497 10.0
21.62212416 11.715659835915671 10.0
19.49624784 12.921706212194925 10.0
17.38021212 14.144792088626849 10.0
11.07829188 8.050593215317962 10.0
14.58374364 1.854297041382997 10.0
14.59780164 19.07339864144619 10.0
14.587961039999998 4.320733206726327 10.0
14.595041160000001 16.59584351358984 10.0
13.18441032 6.79307416883157 10.0
8.2528128 10.52677101637213 10.0
10.3635576 11.714557974473927 10.0
12.46911372 12.927254871597988 10.0
14.576612399999998 14.147625446619902 10.0
16.6848012 0.6172155570312206 10.0
16.70036724 3.0845627256737056 10.0
16.70312772 5.550882802043709 10.0
16.67127996 15.372993750324005 10.0
16.69837356 8.01269705216087 10.0
18.80942508 9.251248340971545 10.0
20.92423392 10.495466345768325 10.0
10.3689252 9.28680304856493 10.0
18.79779528 11.699053209900832 10.0
16.6825008 12.919266376145352 10.0
12.47913324 8.032392825432028 10.0
15.292087919999998 0.6208280884723637 10.0
15.292266839999998 3.0867270963628437 10.0
15.2903754 17.832132051225507 10.0
15.29469504 5.55127632398719 10.0
15.283499759999998 15.373288891781614 10.0
14.58872784 6.785479195322412 10.0
11.069269199999999 10.491845943888311 10.0
13.174518599999999 11.699977986468006 10.0
15.280023599999998 12.919384432728396 10.0
15.291500039999999 8.012244501925869 10.0
17.400174479999997 9.243082760644342 10.0
19.50999912 10.481437288483274 10.0
17.391202919999998 11.694626088036685 10.0
13.180039559999999 9.249831661975017 10.0
12.47320332 10.481279879705882 10.0
14.57832492 11.695865682158644 10.0
14.584050359999999 9.243417254296299 10.0
16.690807799999998 10.468018190210618 10.0
15.285288959999999 10.467604992169965 10.0
