N=181, ave_E=-6.052367955801104 
1
25.56 0 0
0 19.676097173982445 0
0 0 10
C
181
C
2.9810883599999998 1.0655354311404106 5.0
4.3141446 0.9519551602035969 5.0
2.157527268 2.1806034693066048 5.0
2.276230464 19.688689876173793 5.0
5.02399692 2.1164790686165955 5.0
4.9348692 19.297351979480457 5.0
0.597250296 1.6977717207542493 5.0
2.79928008 3.402331695033522 5.0
2.8306421999999998 18.446164015733977 5.0
0.9048444480000001 19.93857631028337 5.0
6.38453016 1.9530749844158235 5.0
4.312074239999999 3.3942841712893634 5.0
4.158688679999999 18.136954148644843 5.0
6.26823216 19.1708740268461 5.0
24.81298344 2.370615539715753 5.0
1.9649480039999998 4.5344352981329505 5.0
1.848777804 17.62449019774847 5.0
25.500879719999997 18.94855380487727 5.0
7.018852679999999 0.666604528547634 5.0
5.014335239999999 4.660303291754916 5.0
4.70436912 16.759037063550853 5.0
6.87293064 17.886851277466352 5.0
23.52982032 1.779529839731581 5.0
24.82561008 3.672838678981433 5.0
0.497862792 4.369077377482802 5.0
2.50103322 5.96901954308801 5.0
1.577054556 16.37200823213862 5.0
24.99279804 17.62203068560172 5.0
8.37693216 0.5745125233345264 5.0
6.484265280000001 5.5656989032157185 5.0
4.05670428 5.793292319227173 5.0
3.94976124 15.465825576790854 5.0
8.26232112 17.765371053514183 5.0
23.74654356 0.39814582631553475 5.0
22.25690676 2.606059718499627 5.0
23.6543742 4.5023042314478365 5.0
25.524190439999998 5.65211632200385 5.0
0.9364545000000001 6.51778589327038 5.0
2.77487028 7.6488466632195875 5.0
2.4769812599999996 15.338875397824319 5.0
0.17773631639999998 16.364491963018157 5.0
23.61107556 17.680094848362145 5.0
9.096395039999999 1.7932421118521293 5.0
9.01030896 18.974014674620403 5.0
7.89300468 5.528137233710586 5.0
6.066257039999999 6.929921424676618 5.0
4.759911 6.966086091282397 5.0
4.6760741999999995 14.214170007262311 5.0
8.933961239999999 16.495515094099705 5.0
22.94153136 18.953826998919897 5.0
21.0113424 1.9956678319683434 5.0
22.33782972 4.046782905772969 5.0
24.098964839999997 5.821763631837925 5.0
26.216892 7.806707990846449 5.0
4.06784844 8.114934053076883 5.0
1.7441070479999998 8.45948219069049 5.0
1.849107528 14.128874126013095 5.0
25.132100039999997 15.215329183668885 5.0
22.91983092 16.514994430301947 5.0
10.55699568 1.6501831121292552 5.0
8.19898344 2.9907077421538095 5.0
10.3742928 18.905049954025596 5.0
8.57210832 4.330276113855708 5.0
8.765571959999999 6.863849090366384 5.0
6.783138359999999 8.13675484484283 5.0
3.99045276 13.014931560605254 5.0
6.06528576 14.178733356251968 5.0
8.218869119999999 15.31807776311142 5.0
10.309779359999999 16.478082072003556 5.0
21.5401788 19.025939895062542 5.0
20.787948 0.5474362460134092 5.0
19.679845320000002 2.6954679040582032 5.0
21.12030468 4.949837061670068 5.0
23.330401199999997 6.966656698100443 5.0
25.170312239999998 8.633556622388713 5.0
4.69309716 9.369816502541962 5.0
1.5519035159999999 9.754503878390492 5.0
2.5965381599999997 12.992697570798654 5.0
0.40306330799999995 14.051488035827823 5.0
23.73123312 15.227331602945014 5.0
21.482183159999998 16.63165401044649 5.0
11.118037679999999 0.3874735112083667 5.0
11.521272239999998 2.7118777691013047 5.0
11.032335 17.655401346408798 5.0
9.8490348 4.667917941361248 5.0
10.21732884 6.9287998871377 5.0
8.13707712 8.116212999393193 5.0
6.09480756 9.376565403872638 5.0
4.704471359999999 11.811639837930356 5.0
6.841900799999999 15.310974692031614 5.0
20.81992356 17.822294002638515 5.0
19.37849292 0.4286516473740771 5.0
18.716309999999996 1.6008039786614288 5.0
19.20570732 4.088024005449637 5.0
20.5185456 6.372910789778348 5.0
21.91312476 6.9662435000597895 5.0
23.8708674 8.200800541144144 5.0
25.53684264 10.248059099902669 5.0
3.9951813599999997 10.58013259190797 5.0
2.5991452799999997 10.653819575824535 5.0
1.953187848 11.823032298194093 5.0
25.37267076 12.830684586668083 5.0
23.1576156 13.957416615239012 5.0
20.750502599999997 15.508758820824484 5.0
12.465330839999998 0.2785899246669826 5.0
12.962115 3.0807455628219533 5.0
11.0970018 4.034150851387272 5.0
12.39220368 17.600937909431213 5.0
10.98985428 5.748056971824187 5.0
10.918005119999998 8.181872135662772 5.0
8.861779799999999 9.351478379975811 5.0
6.807982679999999 10.607285606008066 5.0
6.10508268 11.808314577507954 5.0
19.387362239999998 17.785834194575127 5.0
18.70158744 18.934937945632875 5.0
17.30473344 1.6162772614790488 5.0
17.76440448 3.8156477922701977 5.0
19.181936519999997 5.856590323835875 5.0
20.85739452 8.305497054206905 5.0
23.15127672 9.310020843230228 5.0
24.02151804 10.39139946781513 5.0
0.577699452 11.691871434432326 5.0
24.03779976 12.754911936451077 5.0
21.5723844 14.453352644509241 5.0
21.84981264 12.93199681101692 5.0
19.318733639999998 15.422793952271356 5.0
13.151489040000001 18.729657223816716 5.0
14.23658772 2.469114082168709 5.0
13.20899904 4.512949000018962 5.0
13.054923359999998 16.436368745994713 5.0
12.41635788 5.754923929737907 5.0
12.317747399999998 8.185138367793652 5.0
10.22008932 9.374164920017412 5.0
8.184184199999999 10.569743612600107 5.0
18.649777320000002 16.582857289455013 5.0
17.3103822 18.926536252139584 5.0
16.61701608 0.3976932760805332 5.0
16.75498896 2.871175451821866 5.0
17.261102519999998 5.019942995900967 5.0
18.27062028 7.137307488890392 5.0
21.75789888 9.405981169147742 5.0
19.58736924 9.186533657366317 5.0
23.42622564 11.547075035328989 5.0
20.49727968 13.293387687811453 5.0
22.09414068 11.648662725038262 5.0
18.553365 14.194198768630717 5.0
14.607284400000001 18.638596246095524 5.0
14.33706408 1.1686066985766002 5.0
15.3544032 3.3078470764040584 5.0
14.586785279999999 4.607669731814513 5.0
14.427904319999998 16.476842477881597 5.0
13.0532364 7.004828326617969 5.0
10.8806364 10.60937127230851 5.0
17.23342104 16.560229777704933 5.0
16.58723868 17.753014464488924 5.0
15.26126256 0.20626452667485795 5.0
16.3816596 5.970318165501493 5.0
16.889971319999997 7.112063056216172 5.0
18.395685359999998 8.581178851711572 5.0
21.181444199999998 10.641384282410577 5.0
19.70425512 10.647188731076904 5.0
19.21669812 13.04041210644556 5.0
17.2022634 14.167262191599535 5.0
15.124618799999999 5.833766051114055 5.0
15.140466 15.338599932463884 5.0
14.396721119999999 7.007740388999718 5.0
12.266422919999998 10.619425757964413 5.0
10.138604039999999 11.852093893720065 5.0
16.52011812 15.356741294058295 5.0
16.12802772 8.249734994815837 5.0
17.10099468 9.259964852019618 5.0
18.70296768 11.758258586297343 5.0
16.5286296 12.925562727241026 5.0
14.45568804 14.129543113317013 5.0
13.037619239999998 11.769355905103469 5.0
16.52566464 10.510597264495116 5.0
17.26146036 11.697006895794734 5.0
15.12377532 12.92133236634862 5.0
14.41778256 11.745665884105994 5.0
15.08579316 10.521970048661679 5.0
14.30608536 9.292115594801906 5.0
