N=190, ave_E=-6.4408199999999995 
1
24.635196380526757 0 0
0 18.964183015781806 0
0 0 20
C
190
C
3.982722928447 0.6365365957613196 8.67010419914795
2.8530267280251844 1.4565668335467408 8.024847107096502
3.706513106628534 18.247242076870176 8.957514823587427
5.28328885096415 1.200123668715831 8.887368125912364
3.1031725120730527 2.8522320897565994 7.807004889337243
1.5296707853364098 0.8652124038205212 7.879464750991701
2.4136653911374037 17.652051192919863 8.776567571299474
4.5205092654338985 17.49349165872491 9.885035750224208
5.572579962060674 2.5645264692241736 8.549993159518014
6.269854560415104 0.3625212189479866 9.528288035502449
4.43921311737816 3.403976030417755 8.33030041057524
2.134235749152003 4.025527128760004 7.789193526695925
1.3043351075633698 18.44116981238956 8.362973851784155
24.82710456033106 1.5486208743236471 8.087822996435456
2.2497994553730543 16.587041638936572 9.844902355181752
3.764947792443143 16.34813086130375 10.578175336649071
5.8884031796590275 18.012294813487657 10.074136905539518
6.930398080966167 2.977319840928696 8.216608400988115
7.705938698221531 0.7098331631173161 9.419974132167411
4.328083746505604 4.865526651261043 8.78466364522735
2.922744333782075 5.200547908417844 8.302658101021503
0.6842450429887688 3.9930604474369855 7.849856252055481
24.580727961329412 18.346595431689856 8.929005077541422
23.832113613717965 0.6225467179505773 8.734236670476598
24.54365199077672 2.823273782291501 7.591996297452738
1.988415094736389 14.950925713433014 9.302060598317894
0.643661020471489 16.587250244949747 10.467895243931551
4.15245943150883 14.859973491689322 10.453033165363959
6.943848898189935 17.206696318977244 10.638317600113272
7.474811285779429 4.338265470873262 8.081577453691096
8.635129035302239 18.54317815283145 9.332305217348448
8.202337905289145 1.936375835192433 10.036490161774914
5.457508959767234 5.866361409918928 9.215548265488628
2.1783081154767654 6.357856141138945 8.71307122006516
24.659092521015864 5.165824489315948 8.400909741046185
24.23172113420649 17.419398595682253 9.931877320806901
22.612745298471033 0.76940345480649 9.648919537027751
0.7438474371118151 15.108385325013051 10.12936369554751
3.099230880652169 14.122171951460333 9.709871407884737
4.782479943744421 14.005125013886929 11.506737187076585
6.7448950522208015 16.494648139283683 11.851745594602924
8.230348123573805 17.301175878761867 10.051178753044052
8.882047608624259 4.771028127293403 8.656572189868506
6.76021814436949 5.769188936146063 8.522119533566336
10.117699788678719 18.731264919981975 9.319178011765398
9.619797834631894 2.4429470919099963 9.891859583963416
5.095174491402447 6.99012200288511 10.236347529594394
0.7535241422500861 6.4114489223415445 8.56213727040982
2.7805992506664357 7.406177214068348 9.420263277664834
23.30467405921089 5.003794509629109 8.891763137473205
22.848528763029055 17.298748463335848 10.380399816411042
21.861864512792575 1.9699803674963983 9.715712146932702
21.95281765782948 18.440335388336866 10.133122587014022
24.304025435583338 14.122683984401759 10.171231963574506
2.888476775616762 12.736572883595251 9.880293764066455
4.569237683874581 12.542569291343803 11.589721944837276
6.116919261284794 14.20117673790408 12.28153146197399
7.140930469234149 15.189229637209326 12.047323609060534
9.513176704696974 16.712906921612316 10.568807022532535
8.138606652252722 6.207052957797448 9.111513715515464
9.543699713012446 3.9917898471749282 9.732829560380203
10.655264408898194 1.1339064308796256 9.357807850221246
10.594785001784 17.632669797877732 10.24189912314494
11.0044190471994 2.2899630275216847 11.064055430520401
3.6922246927278284 7.171059273038685 10.454478892851075
5.917891509726518 8.079955672436059 10.69666716149344
0.10969092175589724 7.708030115130546 8.745050712080257
2.3458422319821755 8.783128614478233 9.218844524159259
22.203283699430298 5.8777399197283975 8.52061597697973
22.359865007624926 16.038331967557944 10.94978512993843
20.507273604612934 1.9459527476154026 9.229832053061372
20.25276739080571 18.266528650997223 10.092989191971569
0.14639859612270115 12.658459413753246 10.083273903258117
22.887797266059614 14.6361961321031 10.487094504960506
1.6348753914794494 12.106412046163838 10.33737496639435
5.605960653156289 11.81686689987888 12.324267166493264
6.5228087568503526 12.871009976994127 12.779671324936096
8.631335215059638 14.839245639653074 12.19941414070557
9.704666086162808 15.422128768826143 11.222969795904643
8.398187716514332 6.878100573810888 10.463326745072255
9.795816312770757 4.720962684131739 10.995527947630908
11.895006031551823 1.2610802421834586 10.311756675322584
11.581128994467532 17.8998751365701 11.193650442465852
11.864556928825492 3.4741055792101165 11.385874369153342
7.310814783474262 7.850792484873352 11.176475199918865
5.2765634423522645 9.525595343729107 11.084526931738026
23.49569537194549 7.818761979759697 9.492838797518264
0.8922202978724517 8.95344594214297 8.94513939629768
2.7737260308762686 9.77662423430901 10.153189284535248
22.247627052915245 7.245209228630392 8.974690066134414
21.012467576788392 5.321103219849169 7.940474450948173
20.98135332375979 15.922953878089924 11.492858203200232
19.906815328033975 0.5937382275313031 8.97185644025966
20.02457156673289 3.1173134399511975 8.57983297485217
19.96276185901415 16.849676609522135 11.128072243650085
18.460803206086194 18.39080094229964 10.014688591269138
24.027002652284313 11.461440181797098 9.572989929404205
21.664487319391796 13.678580746538179 10.674402958191788
1.5442154052794728 10.695211331227451 10.463037599574829
6.046191612476302 10.434150387832197 11.984694694318492
7.915387137848769 12.519300238783439 12.993234189333485
8.889388897145656 13.603444653429653 12.924012757250171
11.040263257933066 14.76454572275391 11.09158208187517
8.895867953793733 5.789290970142791 11.406288041271473
9.540521772679359 7.924202837327443 10.497966375663655
11.198569029874331 4.780453326252247 11.33926411496859
12.273008484814627 0.19564778691891616 11.189255430905007
13.334342015280479 1.8982767915137273 10.04175260982803
12.480116580785714 16.857774315669875 11.71688813460436
13.341239870267028 3.4651734490096833 10.578753627643923
8.00050174134349 8.767862447150529 12.064383193408553
4.176429477587082 10.178721806792632 10.276885728333244
23.55457349129495 9.10216306535273 10.239065497270179
0.19298079625471157 10.098105064792545 9.803901523647028
21.026485003528915 8.04417025908528 9.006727387248997
19.794503467735154 6.050484662819153 8.090136160414847
20.916070053351394 3.8915451757535053 7.757329692879797
20.611603661284462 14.450005783254152 11.462324438672248
18.890613477337244 0.42956529516367997 7.938797407063113
18.698409675176375 3.844134718214051 8.898471313013442
18.521208707611247 16.4314594814751 11.214295430981924
17.89197652165983 18.864165914556573 8.756096070081856
17.646314343353218 17.524782560700952 10.89299695424435
22.603876627774042 11.212061175139567 9.797135519007306
21.078342091909924 13.012501746474877 9.47641533326458
7.403861920203511 10.088490224003543 12.364921023431084
8.375720417415293 11.208666586379742 12.812691740741919
12.3373063473678 15.380976491681897 11.41658162097977
10.785929490500507 7.667219193280584 9.837095426751304
9.412443386697 8.744346860210959 11.705784947503279
12.025449396386712 5.658532928248975 10.515257276409606
13.742719665680472 -0.008605168721058137 11.436012198406665
14.643628797316335 0.8293568229925826 10.45679205683047
13.82024662868999 17.513802298734813 11.754997511164849
14.84415929585382 3.464490738421115 10.936947069852806
13.255755738826597 4.995658875115338 10.161863649457967
22.299705858063678 9.848251953559618 10.29053339581166
19.819434286472244 7.474827556585478 8.380553898027536
21.045133847188975 9.44092026656364 9.565934779267057
18.585802192520987 5.269368928582117 8.463827801285653
19.3215569676218 14.10500936583105 10.784162589013949
17.615717429448605 3.5971831269825403 9.931703833508447
18.226990557238615 15.080659689443976 10.738766745918376
16.44985676074018 0.09889119767958628 8.627137178230743
16.010217046133295 17.364686927681724 10.45748600602429
21.526259232500664 11.768659946652763 9.032981798415097
19.658862076463972 13.341530321798691 9.596931176590914
9.77492566624007 11.044910866038466 12.674306705674784
13.557462988898909 14.54748168395527 11.551670397376274
11.913654875211881 7.076977961097391 10.514852472713216
10.292437236605796 9.771655618358874 12.219133863629889
15.603687035461842 18.68015644675444 9.757406927661243
15.581860251468695 2.171398955307017 10.768433073954082
15.005593737735413 16.715922226711825 11.40368573179466
15.47627379978176 4.811156338554797 10.66833090274589
14.492886030663893 5.812503130154108 10.33026198715772
18.54865231637915 8.15543312083887 8.407270941989513
20.55440073528888 10.646700951073079 8.784258841530953
17.390428558548688 5.982042926315198 9.046513807694541
17.007646877188062 2.28863553471058 10.33691233359847
16.818818096931324 4.841100783536716 10.078184942503455
16.94827605391099 14.791797253747587 9.925342632565119
16.300296483513996 16.136964683423024 9.454613762758807
18.693728987864073 13.209141360165518 8.563640826996423
10.629323547109498 12.13341704277831 12.184841207635397
14.900081191637616 15.25818340665471 11.483200743586266
13.73510738999889 13.148057726671684 11.058041204173982
12.98218188302085 7.830045668654086 11.075216446720969
11.656118532249854 10.088888471846875 11.499797695138408
14.377593311603027 7.251088125365285 10.88987418287217
17.3460112994746 7.459997565467136 8.981745216271563
18.34790010107424 9.522978286472929 7.861942533847806
19.327789672306075 10.717740780650198 7.994891633563373
17.262670430119275 13.705775384982811 8.865624384506074
15.912735574055551 14.2760662966334 10.845287947169385
18.53362484658703 11.994276831991519 7.727836852142545
11.788532712795186 11.569137777143723 11.438383191485546
15.171043716627032 12.92130299035198 10.656418108252016
12.65995351436356 12.306427284431289 10.585114828587251
12.834370704737688 9.242991088427926 11.629508365282824
15.442498945544058 8.252131490036342 10.629527576991578
16.131052684379778 8.221106086622523 9.281936071697181
16.99528000860504 10.117600244932767 7.740790570427141
16.320940778080878 12.531001139704177 8.52165690077046
17.124245261657094 11.604411157553077 7.640919715616885
15.555796213698098 11.974042048713681 9.61653524131626
14.056128634033534 9.92966519124637 11.810455617570774
15.166116677350926 9.71413725127201 10.961813582631269
16.010389492507958 9.58205171656709 8.659347986643777
15.433285382097738 10.525235358856998 9.699173024480046
