N=109, ave_E=-6.24767 
1
19.804012174056172 0 0
0 13.720622111671316 0
0 0 20
C
109
C
2.7560253542025275 0.1919185738492137 10.273741655600269
4.190885448249419 0.37076825513706047 10.206296442308904
1.9109247818965933 1.2909280564341856 10.633672603620024
2.521149769818221 12.492928286363192 10.827026705578557
4.795264291777265 1.2306712003063587 9.225300515320779
4.945339096032263 13.044730545828276 10.84772329294919
0.9421204279466351 1.0918418295938348 11.626383580063226
1.889328506620785 2.5305903804103225 9.9050523134641
3.9619708715295037 11.946435907655323 11.181211700770348
1.2021431469895578 12.007094778011021 11.504268135981508
6.052561612671569 0.8205892466327264 8.601613596712461
4.419859437005856 2.616454033585162 9.195399246235443
6.165622718173256 12.480401358375234 10.099298990619214
19.328676273854477 0.9134161155292388 11.312643398466342
0.823046824348905 3.4767233193648415 10.176172029424425
3.0272809089505746 3.1040712228118483 9.206723794042016
4.537257621173661 10.695238656669902 10.676962500654017
19.497743125784396 12.068645488803979 11.097532776091235
6.84854427398341 13.408340752409677 9.130743330433383
6.692587678112717 1.803987395242545 7.7451319096468545
5.410891814219976 3.6457202219142966 8.798259069708376
5.9401540395716275 10.841143752205417 9.930155990867835
18.547427797600132 2.006215644546468 10.747197011434686
18.72322801366923 13.297093948328246 11.416349479118654
19.141092670541816 3.2311927866764836 10.078713975148155
1.1729678762547382 4.834296553582048 10.547818026899257
3.0914063003701684 4.5045351217501395 8.755471246222456
3.7415522160322587 9.60870259164665 10.090429024603225
18.6966114213073 10.83107281557545 10.92124917476724
8.365155330284805 13.511506110067334 9.08957329949126
7.911128547182393 1.2789732783882866 7.1786813755190515
6.6264620814635435 3.2221920585712267 8.168770412322306
4.670023718788534 5.075806943991687 8.444464576165089
5.881316319402506 9.53767093097453 8.987875513031245
17.26890057565524 2.4436016362223265 11.400896771027913
17.285021041564924 13.08827980041072 11.75524912406906
18.332692893596843 4.663461087669629 10.50313348112061
2.3385963855977714 5.7238456469480345 9.789073323858851
19.671602548660434 5.504850797423649 10.873998475298432
4.578192514337435 8.802616042585962 9.263123389275737
2.3301598764116234 9.877311210726841 9.748740082163518
17.454998878054848 10.563822538084315 11.778065577531564
18.40893834046696 10.12382962820724 9.610223568844695
8.853403446423986 0.7090858669178071 8.028524534560116
9.238076578892853 13.374766390102417 10.328300314491052
7.830585629670506 3.9497280460425985 8.260426727820828
3.899449605096008 6.382257140220807 9.277739308119692
5.312941170007094 5.934100460187286 7.341911064593106
6.951604353337197 9.11743571693826 8.177696164288083
16.150449184113246 1.5931425952524914 11.516596830884232
17.132946032080348 3.9460920811830054 11.370214498645566
16.211663385743254 0.20433436479806508 11.245588686823478
16.751500953595848 11.784216992429032 12.148595856010669
17.326886723300877 5.638942437321012 9.60291560942272
1.5483430250078858 7.016314529245361 9.980474917574874
0.12952536906271003 6.8643449187364896 10.390055360904235
3.9860723543453305 7.748254836414579 8.46834096267353
1.8252110368060608 10.859803798277287 8.756642751167966
16.467570831056406 9.672750455663934 10.982613719531923
17.069137504855536 9.3949215785247 9.648325372548587
19.441262083063986 9.816679781615365 8.576900420957234
10.120681989454015 1.4515594956821551 8.201907266495237
9.421382515575917 0.8549209872805504 11.119233510558022
10.073449420418891 12.180386235281428 10.752887178312864
8.924975146421025 3.572575585436977 9.217936769949016
7.848844928894986 5.2580305262567935 7.558806837361367
6.6203822497261084 5.655736478785698 6.774289025519796
4.860775964049043 7.310676756029157 7.385981964924106
14.846652042634258 2.1817298425989677 11.92829714030546
15.72345487762842 4.504082341220454 11.194823472518152
14.960010208318556 13.061826440979418 11.091117391865836
15.148524600203395 11.629475816253603 11.852316676696827
15.935575652024736 5.444013558980498 10.058575247275378
17.76978365156147 7.018166813230437 9.124160588358627
1.5147455183545995 7.952541179035253 8.871506021777492
19.147033874194033 7.3733799990794955 9.310931948242406
2.635379312038177 8.182032304475069 8.08419891244662
0.5430992886576642 10.871576092049102 8.248153818867891
15.060475962077543 10.2480424201842 11.237109222455992
16.870899342993233 8.112029690461322 8.994792970804717
0.06957268300818978 8.391614807230846 8.44647287035739
11.293653826511187 0.630216986895498 8.505215475482125
10.131950472381053 2.844284963749464 8.781523284772554
9.37706113633038 11.061661590784198 11.402458777621924
11.566949194513162 12.28891635618475 10.949253721559849
9.154028351226158 4.532662397079066 10.230340186666705
8.964424738671743 6.1874105856129615 7.737879736174669
13.59402846861303 1.3292730790496736 11.98185165210009
14.55000774427907 3.6151506758494936 11.546107598321065
13.577848590666825 13.611200150330738 11.492497300576641
13.505306494073258 12.167543732984905 12.331908487007713
13.807515719849357 9.505221659680426 11.031593783444091
11.911519202329565 0.724354175203675 9.811276131873708
11.397189202157152 3.1176958005687383 9.624672129839286
9.95549672391021 9.717177830061525 11.62660672386237
12.430820009557667 13.395347323269924 10.542183645970862
12.330690924005639 11.384795962136169 11.824535273703365
9.999481434948791 5.643744655060098 10.007140601572619
9.595340958512827 6.6417003837304 9.026256246484063
12.51637334214959 2.320609979613305 11.627331941209587
13.023217425720208 3.768492348569532 11.425944662481854
12.457852486175254 10.016067862142172 11.394035099204224
11.83767004093251 2.0175763196549323 10.375104726361563
12.069753259600274 4.316096097668447 10.36182767031248
11.269671167768406 9.233814033689455 11.065623212813598
11.37481066840047 5.601718389532048 10.441378434707424
10.3617562296488 7.873194821363459 9.138609149353218
11.318824725984413 8.04364610985675 10.21561269592318
12.058068892417582 6.862108457332287 10.595515013966349
