N=92, ave_E=-5.874706304347826 
1
17.04 0 0
0 14.757072880486835 0
0 0 10
C
92
C
2.4187939199999997 0.43817586221114335 5.0
3.8099736 0.7524513405177192 5.0
1.80395664 13.975862956339622 5.0
1.6920771119999998 1.624340526100947 5.0
3.91560456 2.16338688427937 5.0
5.110517519999999 0.24323935658177648 5.0
2.55013824 12.770357672732654 5.0
17.382844799999997 13.97425443539565 5.0
17.355580800000002 1.6418424145372041 5.0
2.63394096 2.752326905866719 5.0
5.3100048 2.7164524616942556 5.0
6.03655632 1.4180277929880125 5.0
5.248899359999999 13.576329965173322 5.0
1.8336743999999998 11.567641475900095 5.0
4.01261328 12.669168423991156 5.0
16.69117416 12.764882798693993 5.0
16.6428828 0.4374881826149127 5.0
16.71881304 2.8205045825745683 5.0
2.71978848 4.117193819510066 5.0
5.99497872 4.018690358032816 5.0
7.425060719999999 1.0875387187076457 5.0
6.42818664 12.608251227140505 5.0
2.54166936 10.299699016935785 5.0
0.39213129599999996 11.589142531086965 5.0
4.59999912 11.342684656909954 5.0
15.22985784 12.72115759174911 5.0
15.199441439999998 0.40692923609400056 5.0
0.336635424 4.123229462318185 5.0
1.6285860719999998 4.8812117537515105 5.0
4.00238928 4.671351420318107 5.0
5.3824248 5.531851097052176 5.0
7.37869488 3.830242537348999 5.0
8.761116 1.6666195399035415 5.0
7.396399439999999 -0.28975069888649485 5.0
5.94392688 11.333417215141008 5.0
7.89464904 12.791032331838215 5.0
1.86211416 9.140471913882022 5.0
3.89493504 10.20247942079914 5.0
16.769933039999998 10.40348551050425 5.0
14.504482079999999 13.908437890348678 5.0
14.514467519999998 11.462467817480865 5.0
14.3747736 1.5760111124173526 5.0
16.28560512 4.8752646533806745 5.0
1.76532696 6.45437475110293 5.0
6.671739359999999 6.361700333413472 5.0
4.34165568 6.744808702463791 5.0
8.681164319999999 3.044325106952912 5.0
8.86722408 4.601181538771392 5.0
10.2148836 1.5358718741824282 5.0
8.870035679999999 13.995076665230016 5.0
6.73632096 10.21190919036977 5.0
8.70950184 11.594218964157852 5.0
2.5266059999999997 7.804366535282745 5.0
0.510685392 9.241823490425208 5.0
4.5518440799999995 8.9160315924427 5.0
15.292547999999998 10.329345976352684 5.0
13.062863999999998 13.858219571336381 5.0
13.02087744 11.39408354175269 5.0
12.974682 1.43838074790478 5.0
14.6236428 3.071360064469964 5.0
15.02934816 4.428479514851055 5.0
16.33525968 6.129556819930534 5.0
17.480313600000002 6.882728305604821 5.0
8.02923096 5.820942154780912 5.0
6.78468048 7.855676877688198 5.0
10.46889888 4.393357681395496 5.0
10.941571439999999 2.755352105807219 5.0
10.936101599999999 0.30929791762398773 5.0
10.25351328 13.923667189561339 5.0
8.12402448 10.347541447214326 5.0
10.113205919999999 11.57419361625903 5.0
16.91489232 8.145550060279602 5.0
14.692143599999998 9.079598988250016 5.0
12.33501744 0.2772485067421464 5.0
12.34094736 12.646427774682325 5.0
12.08836344 10.174263897451649 5.0
12.29928456 2.5960495040623632 5.0
13.087009679999998 3.678008573513897 5.0
15.14721384 6.828378006185988 5.0
8.985635039999998 6.788799536720521 5.0
8.29444152 8.021900546614003 5.0
10.259528399999999 6.173001642490687 5.0
12.117535919999998 4.742170613071564 5.0
10.899175920000001 12.71391186896479 5.0
8.91640152 9.233692343268059 5.0
10.71401928 10.356617047035824 5.0
15.607089359999998 8.09825364169764 5.0
13.49784408 8.238593404791072 5.0
12.30788976 8.808541073581232 5.0
13.714115759999999 6.710454236798018 5.0
11.389672319999999 6.921332808260174 5.0
12.469139279999998 6.092546081146272 5.0
