N=90, ave_E=-5.847622333333334 
1
17.04 0 0
0 14.757072880486835 0
0 0 10
C
90
C
3.6088164 0.9434388534442679 5.0
4.351896719999999 2.1720197719144547 5.0
4.2398928 14.442112673998604 5.0
5.84862216 2.2381462154919163 5.0
3.5853864 3.3264803404278203 5.0
4.2464532 12.646811458577217 5.0
5.7531640799999995 14.539051885750522 5.0
6.5774911199999995 0.9649059673635122 5.0
6.455178 3.615674697666721 5.0
2.24832576 3.203922850155377 5.0
4.14929112 4.529727791884075 5.0
4.32863712 11.141014498925221 5.0
2.73863472 12.95669523199456 5.0
5.829332879999999 13.075947137941775 5.0
8.011304879999999 0.8012057579002717 5.0
7.8583368 4.028385754915296 5.0
5.49453096 4.706030541587252 5.0
1.6665528959999998 1.971456394395758 5.0
3.4448916 5.71541432661255 5.0
3.28544832 10.151847903746187 5.0
5.41849848 10.339926797607992 5.0
1.8162083999999998 11.919140194840411 5.0
2.0428404 14.245946904198293 5.0
6.95678448 12.252472957064848 5.0
9.00775296 1.8427599618050325 5.0
8.98106832 3.2935720679043348 5.0
8.18616936 5.386228301867531 5.0
5.6914451999999995 6.200789210724643 5.0
0.327578664 1.8705032588203478 5.0
2.1288072 5.801005349319374 5.0
4.1923682399999995 6.8882622079350035 5.0
3.6307128 8.518239935876297 5.0
2.07175728 10.588244062967945 5.0
5.00560224 8.942682866064859 5.0
6.88579584 10.77354862712822 5.0
0.5340693839999999 12.15435317948249 5.0
0.5502130799999999 14.249547629981132 5.0
10.42895712 1.7128682063109872 5.0
10.360984559999999 4.030702615357533 5.0
7.1195676 6.258046653500932 5.0
9.22608648 6.466150895261557 5.0
5.95994448 7.99820068756794 5.0
16.76311704 0.6384116327118932 5.0
16.64059944 3.050670648291521 5.0
1.534181064 7.043329529763159 5.0
2.1752923199999996 8.312083627735895 5.0
8.41462464 10.723197494459997 5.0
7.09862544 9.093190252372944 5.0
16.789903919999997 11.063200453626415 5.0
11.094914399999999 0.5422574972372171 5.0
11.14231968 2.91241163247424 5.0
11.15942784 5.278103228872204 5.0
7.4468719199999995 7.615092318517621 5.0
10.52369952 6.467095347925909 5.0
8.77640088 7.8345595063962215 5.0
15.33680088 0.5715502869049833 5.0
15.273923279999998 3.0669624567515785 5.0
0.22914028799999997 6.990823864454387 5.0
9.153598319999999 9.314118390466712 5.0
9.142403039999998 11.848350516232715 5.0
17.2731072 9.590946320631765 5.0
15.52485432 11.335143792668026 5.0
12.50357712 0.5812870035915286 5.0
10.41835824 14.089374360936327 5.0
12.510563519999998 2.972605732753746 5.0
12.56901072 5.327052439616779 5.0
11.1291648 7.802226759715075 5.0
14.5995312 1.8177762374183681 5.0
14.583786239999998 14.097579293457878 5.0
14.616298559999999 4.2964627408622205 5.0
16.66419984 5.701262293720164 5.0
16.55867112 8.183888935623106 5.0
10.465030800000001 9.198939436634511 5.0
10.49379432 11.725527398648424 5.0
14.7546804 10.302429075418676 5.0
14.899724879999999 12.618477878646681 5.0
13.21693968 1.7959505266281284 5.0
13.18309824 14.157714365445862 5.0
11.15204952 12.908424846602488 5.0
13.20349512 6.608851790015866 5.0
12.458080319999999 7.811995941961957 5.0
15.289344479999999 5.550208895715501 5.0
15.183492 7.991678061354764 5.0
11.165016959999999 10.437485806420892 5.0
14.3873832 9.047236727423108 5.0
13.303980000000001 11.799740718164392 5.0
12.512540159999999 12.95818569635549 5.0
14.568671759999999 6.706130414444035 5.0
13.089838319999998 9.022134946453399 5.0
12.522218879999999 10.384463643561304 5.0
