N=230, ave_E=-6.3080934782608695 
1
28.06176335246231 0 0
0 20.830457089902694 0
0 0 20
C
230
C
5.119812600130044 0.7490882335014087 8.925861195136338
3.925896816536182 1.4977577748153106 9.129238401566052
5.145517175360899 20.43134553206016 8.068142388119732
2.7420664306911955 1.1483518536807007 8.3689170629257
3.8485866585001482 2.5624586789143797 10.076901653291856
4.163748322711653 19.341808473972797 8.090953157524954
2.0168718927261824 20.759862670825015 8.622489254507002
4.594019340194957 3.775207890688515 9.760995081949755
2.708827272000204 2.529359082598525 11.029194813659316
4.623708685821862 18.073691907253703 7.592221657138033
2.7909303792168383 19.47401938512241 8.695269159861777
0.4975687383551797 20.86774360809362 9.218222987166616
5.965117097596266 3.6873658531403954 9.291454590925458
3.8588292021237973 4.9172377006424295 9.420245098384143
2.1158008332489535 1.2300572385701352 11.13173035138179
1.7210588143462011 3.685053672403416 11.321838917192135
6.0991120176042735 17.642647258692346 7.4298925431776155
3.684874331101884 16.96746965303733 7.561957864065761
2.0979086529354234 18.22192143990545 9.019645076280078
27.21250214636339 1.093261543815035 8.671046832943862
0.7316880300047728 0.9197230057990556 10.62452950591868
28.029660695187093 19.447460552332785 9.338600611849614
6.397857550254587 4.611321607820119 8.184511189466662
3.0667298079738434 5.705608010123978 10.357011126111907
4.073305259426667 5.553483181996418 8.162039193864487
28.283451282946764 3.364597920532353 11.389311366299165
2.0907051982828464 5.098712642809662 11.304053292532124
5.8864599749193145 16.103547275690705 7.548802148047404
6.589379085135143 18.051195013596608 6.09162309653766
7.031379919699777 18.093772467888368 8.547337932530894
2.5070491626143236 16.939431857794318 8.43712352193933
4.42424567191256 15.732598495833717 7.4085497935856
0.8376183804839827 18.322220090793333 9.751170641661368
26.96926278162425 2.0596822683182348 9.739765256958758
25.94006954890934 0.5782930666841696 8.135332525724216
27.799470050406846 2.0376832225855885 10.880247264919287
26.799713607448673 19.08051122023706 8.681435896237325
7.79954262971008 4.90221894108061 8.062270308866903
5.488095182367759 5.710857285310633 7.7561317155126765
2.8106381556192725 7.12205826178027 9.709727313088514
3.5185522597118393 6.947978131879953 8.301049377715117
27.09843107833563 4.359835499373723 11.423245208904454
1.0650337168686725 6.126174938769113 11.110895762494351
6.711728373351878 15.23766683537763 8.393082927543112
8.050667349951265 17.192938520578437 9.172883759858713
1.935150425491142 15.701352810198864 8.944324367402444
3.905187235182065 14.47766760845253 7.9079588415786155
28.223399109372494 17.048062691518165 10.19180243482558
25.903392824207675 3.0020438148825965 9.659250016434388
24.679170336193152 1.399175553591637 8.199643086002798
25.852601032539713 19.978053955326786 8.050639074962262
26.179183834435673 17.8042707752529 8.950704607359846
8.354856864691957 6.215600091056064 8.31996424838529
6.015347653997173 7.11810047493319 7.791985276335243
3.5698772248834927 8.309102689505465 10.260404129942764
1.3195875845915288 7.20992112978548 9.97272870885465
4.769489546437904 7.879703647054211 8.155037868601504
26.03143865038496 4.208502228615581 10.44893175133889
26.996791371473016 5.661593254293012 12.142970153479578
28.217786756702 6.540951000343255 12.117618580551497
6.059152066590367 14.121800079528633 9.133924772508216
7.9101901626088384 15.773676157215007 8.969167779625952
9.146282776521451 17.6565620040284 10.029699170067193
2.497662502772925 14.354747081165016 8.443786073399274
0.8969213049767414 15.752824869668014 9.968606960917569
4.653033228525185 13.915349419310607 8.961263057554838
26.726809146258976 17.003339700146142 10.005420380848765
24.756620803045948 2.7265401894115437 8.791198608424825
23.434546946221392 0.7092041573113721 7.943473628598131
24.550619398275522 19.22128344925062 7.926026777741168
24.74879157107061 17.779836649086445 8.57748880100215
9.631526788412229 6.284861360879992 9.058999299734136
7.437377511883201 7.365941253388851 8.275923653989071
2.958439463196692 9.552472673201757 10.724975938522359
4.700597917407609 8.600916562877913 9.41228391401252
0.7328048881862007 8.401589918984634 10.62594106343138
25.83452925694073 6.478626272730266 11.816730981144513
27.815914243731388 7.942590797008627 11.69934585838844
6.802480116033741 13.285998819253377 10.063745937273502
8.778842047184309 14.797352633411267 9.613176779219884
9.523011949528257 19.119734970937344 10.073062216857316
10.017740837432168 16.67371854715552 10.710465127291815
2.3595256664940942 13.11166872386798 9.59121294432228
0.6070769636618286 14.51818284749239 10.770428090431281
3.8662655694122 13.286227954281367 9.965670921291153
25.838457903810074 16.172975189171353 10.755522043097173
23.65881655893427 3.7427748689995366 8.499627288601655
22.03684663716195 1.173346319142875 8.353615779488042
23.34578758873755 20.030025945766095 7.940198815168667
23.785599605760694 17.06601854552966 9.457679603620928
9.86915380048088 5.034513174058582 9.902828380825781
10.042687745052506 7.536063596442087 9.76449574458125
10.964544732944246 6.024563969084568 8.239110234057872
7.854291130010734 8.641931732887931 8.898646366291494
1.5258583822901381 9.64816779307277 10.671675526842836
3.8687630663505685 10.883643033531989 10.17153246894322
5.105248544950116 9.982434137994439 9.693522632842729
24.632840364898236 5.952407265725144 11.166624053095717
26.35454179362521 7.820170200691269 11.356111533600476
5.98133679681399 12.330214126140282 10.938516359043515
8.286358100348595 13.424500528444138 9.998814291689332
9.861885803772592 15.2313343764223 10.46395072327401
9.139042841576517 20.063687964423377 11.12981063316452
1.0711062824581454 13.271604973404255 10.384056568055225
2.422193196412813 11.519617718943808 9.454235403289939
27.55822307086573 14.53143101820157 11.656603896903906
4.5102830383512105 12.246913128237761 10.706286917054225
24.404333425919138 16.090840696865865 10.428435936254495
26.21858255018253 14.876904149037605 11.273845961760362
22.293920451233856 3.7060299426929477 9.030485837977611
21.525224567719857 2.483927855685447 8.882836922149263
21.190756410321857 20.797982407299536 8.468968259425829
21.97415665783255 19.49324589701639 8.226462678744085
22.812389590933947 16.156914906755034 8.74625461722048
22.845979521666845 18.01574157562959 9.929704435867574
11.228914605487795 4.515064065607679 9.707355896467181
9.303653145402059 8.817865773469249 9.73095713807951
11.413308452476823 7.702978049103477 10.261307526750894
12.162838151621091 5.588769976306713 9.123027548510176
7.280400007689527 9.051979280702666 10.28112579422919
1.09993413195013 10.793926254845777 9.854496651590956
6.3710585662529855 10.08058725180206 10.360681175644924
23.674615331701705 6.778251567511426 10.393993932944632
25.956878545157466 8.296291958395175 10.036418183827642
6.56142956883609 11.096738609561694 11.291744511021385
9.326719914877783 12.82518744751055 11.02631523633341
10.13868703748128 14.102573567634652 11.36887201351528
9.944190955685364 0.4292303157488259 11.496194501160758
0.25579981001570545 12.031151253700548 10.450060997349045
23.80117388442131 14.551928187978033 10.486648568078216
25.183131544240023 13.896352042444615 10.814920383231563
21.696681941803398 4.893449318645761 9.742588371984155
20.16796125965131 2.486385849622055 9.467165270106268
20.111023941809165 20.83983079559315 9.40607306095664
21.697074806490335 18.32009538417016 9.090787574920125
22.76373049328078 14.803643431452418 9.345150238708538
21.579271523936697 16.885126856160944 8.462475094867411
11.577357521035319 3.084365781301892 9.515779310843634
8.51068383658818 9.13880062585338 11.125124262222364
10.381729969876957 10.017700101847645 10.147197217424285
11.608758634226724 9.127156400340125 10.485801633570588
12.481872339175235 6.691388561446532 10.050194985151588
13.43055637283193 4.700371811879453 9.023258663512589
-0.007124039862289607 10.289850023727222 8.891588578727998
22.276466034428623 6.27244640845441 9.784878635064626
22.89048547834385 8.097131958158617 10.973692372259979
25.58699644240866 9.668664962849235 9.686351920678216
9.917391971683761 11.3092092718787 11.33770482363488
11.185166316421304 14.112593017494897 12.379829504110518
9.838033304922998 1.6994778382282192 10.742422789379326
11.365547331250934 0.28406910942642105 11.952579276166695
26.75835056826714 11.923082842318133 10.040539931764723
23.113071385255584 13.48018034024545 11.397611324473836
25.41682990943933 12.489712936077668 10.497715178977774
20.279815448374226 4.836894627646675 10.160409395743148
19.563538938802626 1.2903468305254404 9.85082660205794
19.510277711959652 3.678700382990996 9.828015832652717
19.76816531716878 19.675762362038117 10.179437191014337
20.460252586730558 18.441620270832654 9.917790890460392
21.510744697829985 14.053309536617032 9.390037767612377
20.274118910413673 16.264191760768036 8.971031035542715
11.195885910021946 2.3126806679493566 10.703294415127303
11.050554037619543 2.546148431012986 8.25971897374328
13.059411490732263 3.2521342827039685 9.393594892544378
8.828483306554816 10.351903955398043 11.81345616771505
12.540661733398643 9.59046742693374 11.511834558401464
13.741985822517556 6.357080555610684 10.788834800396877
14.51233735006935 5.140311065618198 10.199763619197206
26.685446107077443 10.6284282732665 9.327929237053606
21.487285063667326 7.449554708147721 10.44695557082111
23.220576000658866 9.539703603005647 10.988316108091542
24.27404265867365 10.190676217522196 10.160127084240607
11.122981448832247 11.525804364699509 12.369158129314513
11.41678811113253 12.840539494385807 13.016385480037396
12.04520323964757 15.259705458978747 12.49952958118742
12.182256891860995 1.541049713785255 11.557117323408857
12.13023038260553 20.06356298168084 11.346287093312085
22.65190436632122 12.10791148807684 10.820284301779818
24.14240492678725 11.643329803600741 10.328779975857923
19.637902611686652 5.8334653557418 11.052739592971143
18.330813736492306 1.2678666012340174 10.589409955002719
18.070737313741684 3.680679276414536 9.807463555267812
18.47092612091115 19.609583999863496 10.9292000794597
19.73468763348929 17.232099779907454 9.906441968058289
21.48630290194999 12.64331672665861 9.818360779265852
20.209632978229717 14.798435817179943 9.238154179245932
13.901685317756419 2.755973625279576 10.467564310506518
12.139631073328605 10.535024503675377 12.550966736950183
14.747242371092813 3.838469988870549 11.009715319984064
16.05680068146217 5.476347999392508 9.99531362905784
20.37140904395666 7.09647846047387 11.317378395452007
22.23400858647635 10.636093881475587 11.348827896834951
13.271193618753296 15.412892640417892 11.738361308039448
13.820390389324336 1.3050218875452768 11.06250757095902
12.170050024802675 18.64338407820545 11.691384674016813
13.334585142166508 20.57620053066334 10.661964011155462
18.143641774931385 5.739582485637609 11.422285349795821
17.6965336994366 0.03291503846603885 11.01321598261556
17.211878984576227 4.439116219057893 10.750722747553997
17.810380273357545 18.283204644663943 11.035066892912148
18.455576336357353 17.13652964277898 10.417933948360012
20.22186790705139 11.923853569230461 9.677487339498462
18.89895219732626 14.088846296412406 9.333293155601865
16.083655788990477 3.5601959126065394 11.450629424650824
16.36287033434748 6.87180115030218 10.275987724882967
19.9866261448677 7.972919942531526 12.438267985136271
20.807376599400516 10.288766839958548 11.551188781855519
14.180984048403477 14.279257504671206 11.456783815406187
13.709041312341766 16.64263950517739 10.919036865368263
15.37344062030301 1.093509426254405 11.524425651414742
13.43900296360102 18.060506227915795 11.284235025053828
14.169675157772435 19.3312890931424 10.726161646833031
17.402221925395978 6.986347833839554 11.31777363155556
16.218660932479175 20.740511176188495 11.043818549490883
16.372495519177374 18.209735622507857 10.835980821321034
17.459075057948066 16.27589847765256 9.752525736873558
19.843090225319855 10.792905562448373 10.595394958856566
18.9358814778981 12.643650013972048 9.411493441805405
17.58956225753702 14.812642188915255 9.7329897808978
16.261398998064973 2.2110280373506317 11.985892033466396
20.41263177432143 9.362394752256396 12.62013305507245
15.181498158972168 14.679806364052947 10.410932623097022
14.99906863541781 16.15412362550499 10.14369655479279
15.580592557370887 19.42306808708051 10.86562352908772
16.149180006418476 16.96313691796263 10.020665201985917
18.38009019293923 10.667714515338059 10.683419685348497
17.7842547716764 11.890670651086245 9.985263339567418
16.42410110198255 13.986422938901354 10.156569959308609
16.562136915913314 12.5639110242319 10.368247123912997
15.391652704718757 11.804557541476587 10.753771711781425
