N=160, ave_E=-6.700279999999999 
1
25.851207795650975 0 0
0 17.41273540964568 0
0 0 20
C
160
C
3.9350708506539913 0.3876928126222201 10.201530190350603
2.6260173902978177 0.9013719897538497 9.56653714252504
4.598645503560556 1.61556055640109 10.741978210604277
4.769521987089809 16.629667285538506 9.875841382277226
2.4835022668411733 2.379171689961528 9.855512380841677
1.7690705328382241 0.2016690776938934 8.714964374927934
6.0580237372484405 1.7383638728776163 10.784699455412113
3.800230950791876 2.7993758208670974 10.46768840019033
4.219847755730882 15.335309011597904 9.531279978841297
6.218275374373682 16.70008438753511 10.254749695601273
1.2626143506720666 3.0858849692974073 10.221737824613403
0.269739257502161 0.2701812264366853 8.968925183906336
2.058270579568951 16.2465871065263 8.067106406790924
6.861013953796951 0.5641639209048152 10.639544316803669
6.742796380547439 3.092345094134386 10.761700376176076
4.465873700322093 4.1197313087743 10.274957329864066
4.952496835867427 14.088940236446284 9.85957818112879
3.0105799574659216 15.183226180530058 8.586254488227052
7.00790051649184 15.503899115834091 10.358822046233993
25.684545058992413 2.5820126447484903 10.04454175239908
1.4639461421053759 4.341099414037126 10.882096611543613
25.30905626576058 1.4370800184522219 9.148305865230142
25.53458220256984 16.360762412607347 8.668359380592111
0.6918248527856522 15.537087789524877 8.051450041506229
8.322822201017626 0.6432159983910656 10.805149824020404
8.22644889835544 3.163580594695247 10.86370948487206
5.978427868445631 4.195633422424946 10.25650951960614
3.633955982250249 5.392254012511207 10.045998158472077
4.16018316813852 12.778666722341265 9.730261458564161
6.360146802756214 14.204874228803705 10.295286331299618
2.2576635304175863 13.94265584626985 8.675580727370711
8.480592122194485 15.586243941586305 10.415318465148903
24.679605207144277 3.1065364734932475 10.964080136735923
2.1377527030574597 5.476026682567012 10.292191468394503
23.895124455377452 1.2307896007806085 8.823223893020518
24.11036161148404 16.137426668243233 8.776740265857445
0.8399832949040872 14.09249243446985 8.401715702061388
9.006405688758026 1.9584800024644884 10.893747860127565
9.128837008878229 16.867699378588362 10.66333228266258
8.875598577312031 4.455274720118173 10.65805281064797
6.637556113611344 5.4489324662696035 9.937253171688493
4.326509839095738 6.558889872222058 9.615994265420476
4.688685260312809 11.428361329529471 9.728016165868294
2.736350345169656 12.851330067205717 9.414888860174496
7.2277650387938515 13.04297463312428 10.570061610404561
9.230897577255458 14.370068849635015 10.358397261129372
23.28919799585519 3.281464813418548 10.699924485246566
1.4122437265140741 6.726557101481536 10.069300655639982
23.248482343577038 17.33554475357472 8.738873707959591
23.561488767566782 14.83169787808013 9.126399090548855
25.681572170095915 13.27573066734501 9.188721133755738
10.46976500844644 2.016255458553693 10.85891548154845
10.587026087007512 16.881768868799355 10.867957335918291
8.122035870068807 5.53855581542305 10.023302497167915
10.358811624587506 4.613103753871202 10.759151665548337
5.790256926901088 6.606861958275632 9.577763606004371
3.5973765232194026 7.804614376163519 9.489893772933709
3.8206534049504404 10.280775002356773 9.480851918563868
6.023538226049042 11.089039354601708 10.058498977265273
1.8602632534581622 11.719763456609893 9.666786427216152
8.55724095330859 13.110623110190751 10.201954975455223
6.661571885653504 11.87219454238593 10.98847493845858
10.658840742263832 14.363173406412793 10.63165545057495
22.70876082721944 4.548241314470271 10.21931048115841
-0.03918448524041388 6.831695197884977 10.068511769017114
2.185611044049548 7.89798146343004 9.790702310593431
21.78388216591443 17.208727801586274 8.805322235039963
24.461472715764575 13.849915617478079 9.804234750355
22.103196284606312 14.659921243263975 9.185686954437
0.34569786136812225 11.979004261388699 9.719399096603077
11.269368716773721 0.7690682848378207 10.905277741538772
11.155416592810491 3.322489218043673 10.919841802268717
11.374040257138311 15.648093977761368 10.94878787296948
8.822267535629603 6.479957942610134 9.21633216555626
10.957086126602258 5.932658255949561 10.480674687674526
4.400676954261461 8.956728014542726 9.290002039415228
2.4084148486779253 10.403639263407234 9.651190745517841
6.696264206515268 9.892122748013481 9.435764013887418
9.324685759138081 11.901395699667907 9.935311296924496
11.420417323923708 13.093419327606021 10.650103260832879
21.338957028543483 4.6147579637351175 9.757326338087307
23.533078290199363 5.748344451638461 10.21196776720706
24.993128655289933 5.684892443805713 10.182172126297047
25.1395498962445 8.169376357524778 9.984889786992682
1.5563331885254734 9.231518392042345 9.755141728977815
20.92766431251468 1.0144172093068105 8.962978192441604
21.206702249460932 15.881128615748656 9.091384661210611
23.873099226335558 13.160214580637422 10.935740901898907
21.458441310974983 13.268782985916564 9.13131446104521
25.311253618423212 10.699812479989896 10.016445251907562
12.744076716684427 0.8114961559369634 11.05140381752921
12.650547046879762 3.3403546845739696 11.065785827500033
12.818011170979988 15.661832625999578 11.138363396804252
10.232812837791503 6.7258257665943315 9.442985360666015
8.09502135792235 7.362696564202121 8.32319114129244
12.374481998830005 6.332576550102893 10.915776001981605
5.818615701852917 8.822144982561575 9.23022870683608
7.946764681214293 9.948923090919745 8.664657681823254
10.755937878744298 11.846632646804572 10.213363489693677
9.065656657025658 10.960167699834921 8.81545639396455
12.665101276868713 13.152761929882095 11.291225350882293
20.685283388222654 3.474345683551193 9.288424266169482
20.656485142738298 5.879253396448178 9.90442335145974
22.862317001525604 7.037148062983386 10.184720836924793
23.661274429657993 8.243276006603313 10.072152784199599
0.11228420403625411 9.381877362304635 9.909642139887971
19.51200047120924 0.8296872406194202 9.365674471624562
21.43116828675057 2.332836401036461 8.86042293146825
19.790495532791784 15.736916341085971 9.40475470124991
23.114573087195566 11.974337648298912 10.52855403732422
21.759323518508563 12.131522410841784 10.026518727245776
23.800896802962303 10.739217500221924 10.246011259163307
13.411451497136952 2.0958664848465927 11.192250421505044
13.493270569810186 16.9699469609138 11.298689432006388
13.509143211396715 14.309611832292724 11.133023241203276
10.900523683945373 7.841860217204751 8.696152463151755
8.599404273223296 8.658639397065002 8.062130352708188
12.720345307928019 7.4797275588903505 11.787677771014259
11.472042185891624 10.736744891793755 9.369618904738921
10.318509591634086 10.25982748165897 8.469377900869251
13.213405394214469 11.937144045463908 11.91523466957402
19.226809946807617 3.368389188583499 9.418165773838734
19.176193281943732 5.934887086081995 9.856119216705427
21.417854914735813 7.123236626848675 10.095758699299381
23.016131687909727 9.544129230851714 10.088901454039036
18.628251081507113 2.0536231887427925 9.421746105434845
18.958190046603008 16.8908757294186 9.460280182782821
19.286603790438956 14.45185646785412 9.745007570053229
20.908301757875734 10.911499104364959 10.106803112019588
14.837714333638607 14.09108200290167 10.52509507290086
10.055551105936726 8.860783842435579 8.121600267355465
12.192928966481148 8.305422059280339 9.163294711064712
11.930513356147495 7.769492888842263 12.948069309672555
13.829956700140745 8.442651827043756 11.425578811116022
12.448028685008632 9.619334835085972 9.727227279245422
13.988683116006044 10.976048114528515 11.209848661553728
18.46326867335527 4.651585899126518 9.648217249785475
18.503363896646324 7.250506309957775 10.019479431226301
20.74337105213948 8.407373625103814 10.102676628146106
21.532246509231566 9.65046880599842 10.065598956871124
17.18606390100334 1.7957579900613494 9.285693504782618
17.530996566620708 16.734718318264896 9.451299011999357
17.905166948254962 14.32357684609126 10.126889379109635
19.45528292130558 10.98177690447829 10.44311154770855
15.191720773192252 12.797524714789914 9.913768623761456
15.562969968345596 15.324826544881295 10.21239255231168
15.228610446716647 8.228405530563476 11.8174127283379
13.455424401597355 9.71247555679217 10.749199557382873
15.241199984913129 11.538514293730891 10.635357149343811
17.054817319024817 7.401387662282354 10.18599519223866
19.312377444611222 8.452159180577423 10.186298610170535
16.636467223267797 0.4269759437063808 9.140295631828678
16.97033557194863 15.419308047214033 9.911037862374592
18.670569508668596 9.734833509058152 10.494753279713475
18.888314231931364 12.175210963984584 11.052496122083962
16.441032092332676 8.474238529076853 10.934587913757788
16.55009833802253 11.142252674013584 11.143703552405231
15.259321681577878 0.209207050852729 8.716845566105551
17.16328898693537 9.740144393358095 10.882764130993735
17.47857031721113 12.203715611850175 11.50070509104799
