N=92, ave_E=-5.657204130434782 
1
17.04 0 0
0 14.757072880486835 0
0 0 10
C
92
C
2.40632064 0.9991276193733611 5.0
2.19613224 2.445674931410202 5.0
3.71853696 15.179863018512783 5.0
1.2228704879999999 14.767993114418394 5.0
3.11501424 3.5760519569826132 5.0
0.852132912 2.7734442771586956 5.0
4.94787072 1.1228863353782759 5.0
4.3220085599999996 13.797700815453505 5.0
-0.1667207232 14.212891060946001 5.0
2.0499631199999997 13.580343888996813 5.0
2.5534440000000003 4.888339419952786 5.0
4.51207272 3.525199083836456 5.0
-0.05599599599999999 1.7879226789811433 5.0
0.377372952 4.084418360642505 5.0
6.138387359999999 15.118030883143541 5.0
5.287886879999999 2.4224325416234356 5.0
5.89410192 13.770665857936454 5.0
3.79436496 12.44378364988748 5.0
16.579681439999998 12.720936235655902 5.0
15.419274479999999 14.614608098898614 5.0
1.7165925599999998 12.169626749913794 5.0
1.226672112 5.129779889350431 5.0
3.26975448 6.070543285481467 5.0
5.21146248 4.677696961656717 5.0
15.63626184 2.0635110150242353 5.0
16.0123176 4.378349738276041 5.0
7.4908692 0.9874105035062546 5.0
6.71626488 2.4170019388034163 5.0
6.9496106399999995 12.711535980231032 5.0
5.05984056 11.838433763257028 5.0
2.7933501599999997 11.266479132555121 5.0
0.44101053599999995 11.730677617083714 5.0
15.27198072 12.422813849324308 5.0
14.827628639999999 1.0529363342174805 5.0
14.59520304 13.570338593583845 5.0
0.713393232 6.5992154214249075 5.0
4.660099199999999 5.914561025134721 5.0
2.22049944 7.2064394563111795 5.0
15.109112399999999 3.316342231358926 5.0
14.90601264 5.593638961202774 5.0
16.34282544 5.998366442023006 5.0
8.96941296 1.7972343919687306 5.0
7.956964319999999 3.1064818979255224 5.0
8.376267599999998 12.712746060207232 5.0
4.2945571199999995 10.385349067934131 5.0
5.911431599999999 10.661867099568694 5.0
3.0195732 9.595594798589117 5.0
17.0261976 10.34497371653312 5.0
14.72365056 11.175457507028279 5.0
13.41361536 1.1950425189347043 5.0
13.27588104 13.660371495227695 5.0
16.89587568 8.008176468835149 5.0
5.44986912 6.9843897806784945 5.0
2.0337410399999998 8.667079772948886 5.0
13.65052248 3.4930286649569946 5.0
13.940577359999999 6.594286559082825 5.0
10.495566479999999 1.4598301533365676 5.0
8.17359384 4.481959146969939 5.0
9.21035856 11.479792621042558 5.0
5.399958959999999 9.263944342673057 5.0
7.177554719999999 10.609656575717532 5.0
0.7212162959999999 9.101690326352104 5.0
15.608997839999999 10.022561188240244 5.0
13.345182719999999 11.213958710173468 5.0
12.620897519999998 0.11118200064251989 5.0
12.809121359999999 2.406332575110825 5.0
12.61731912 12.52562637608266 5.0
15.467872559999998 8.56138961697884 5.0
4.749985199999999 8.108288451256373 5.0
6.93812568 6.855767133452171 5.0
13.02423432 4.7196513198559416 5.0
14.20159608 7.961322762439603 5.0
11.172275999999998 0.21747055591787035 5.0
11.32652208 2.532933503352521 5.0
7.152914879999999 5.441906737845608 5.0
9.4980108 4.7595396878518965 5.0
9.21262488 9.945632567314266 5.0
10.62002664 11.511608870172887 5.0
7.954698 9.272311602996293 5.0
12.609446639999998 10.068381899534154 5.0
11.248666319999998 12.618492635719562 5.0
8.10238368 7.765038936056247 5.0
11.627244 4.882820274695484 5.0
12.993732719999999 8.658579698969724 5.0
10.516099679999998 13.80026854613471 5.0
10.6667844 3.7681152605221495 5.0
10.2988908 5.955526659450952 5.0
10.376490959999998 9.369309843039733 5.0
11.28289968 10.306398728023527 5.0
9.57210072 7.2144968181039255 5.0
11.943267839999999 7.700476742204117 5.0
10.62219072 8.090019195030328 5.0
