N=188, ave_E=-7.067539893617021 
1
25.56 0 0
0 19.676097173982445 0
0 0 10
C
188
C
2.4325988759999997 0.6124067188818992 10.0
3.8374505999999995 0.6201650039976004 10.0
1.750946904 1.8526776985855782 10.0
1.732078512 19.05061372091872 10.0
4.586026319999999 1.8783491025684733 10.0
4.517244359999999 19.077904467699028 10.0
2.4500231279999998 3.0875731685413252 10.0
2.420560116 17.793940746610808 10.0
0.345070224 19.057775820290047 10.0
6.04182168 1.9078770215974685 10.0
3.8786277599999996 3.0931808562359104 10.0
3.7986249599999997 17.75482466542893 10.0
5.9412942 19.210442658262977 10.0
1.7604117719999999 4.302847634395177 10.0
1.7136983159999999 16.561430019632546 10.0
25.1967924 0.5992020900684396 10.0
25.190325719999997 17.824222260161566 10.0
6.76455624 0.7243322300463809 10.0
6.74651088 3.1176972733146924 10.0
4.5990108 4.320595474046109 10.0
4.42959912 16.399358007210452 10.0
6.14344824 17.599049004102508 10.0
7.247410199999999 18.322165251343538 10.0
0.3511944 4.3303548182444045 10.0
2.4854211719999997 5.539391961294103 10.0
2.406566016 15.292656245562636 10.0
0.32399344799999996 16.581794780207616 10.0
23.79242376 0.6299833764874178 10.0
23.77984824 17.832191079517028 10.0
8.29227744 0.6938696964016213 10.0
8.19233784 3.116949581622081 10.0
6.03077976 4.327816601708961 10.0
3.8927879999999995 5.541182486136936 10.0
3.77551872 15.251887372218143 10.0
5.78923776 16.3515254149805 10.0
8.5016394 17.962427166711617 10.0
25.191297 5.542304023675853 10.0
1.76393394 6.751636308183163 10.0
1.719822492 14.09534605642863 10.0
25.17892596 15.356642913572427 10.0
23.0943546 1.8482781232574756 10.0
23.07462228 19.068341884472474 10.0
23.068794599999997 16.59983776131616 10.0
8.94206376 1.9033023290045177 10.0
9.15950268 19.153126187195166 10.0
8.884656 4.332302751864629 10.0
6.73728372 5.548344585508266 10.0
4.59550908 6.757440756849487 10.0
4.538382479999999 14.041866424309747 10.0
6.66065484 15.275675773701488 10.0
8.99300484 16.64930346961155 10.0
23.78733732 5.539588722265843 10.0
0.353390004 6.778533533019996 10.0
2.4402617639999997 12.85819177051731 10.0
0.324486756 14.11372353118913 10.0
23.773867199999998 15.364454324150499 10.0
21.6661896 1.8463301896372515 10.0
23.78002716 3.0839921188556603 10.0
21.65821488 19.065233061118985 10.0
21.65504544 16.601116707632467 10.0
10.36555128 1.8970413948837563 10.0
10.47630276 19.131974382733134 10.0
10.31092956 4.332066638698541 10.0
8.16465636 5.551846930805235 10.0
6.02413416 6.764150305985815 10.0
3.90789396 7.981471085945761 10.0
3.86193708 12.843572430317042 10.0
5.993308799999999 14.05375078700283 10.0
8.155250279999999 15.382103783315559 10.0
10.39837032 16.60863297675293 10.0
23.08845024 4.317604707275664 10.0
23.07917196 6.76501605426147 10.0
25.21849284 7.992922574501018 10.0
1.7404775279999998 11.64693122848695 10.0
25.1870796 12.896107609771574 10.0
23.067899999999998 14.136272338550514 10.0
20.95176204 0.616566245824479 10.0
20.95398576 3.077853176537378 10.0
20.947672439999998 17.832171403419856 10.0
20.945448719999998 15.369688165998777 10.0
11.1221784 0.6586573528990622 10.0
11.0403864 3.107957605213571 10.0
11.13365484 17.856569763915594 10.0
11.01040452 5.550508956197404 10.0
8.87182488 6.7736735370180226 10.0
6.734190959999999 7.990817232103402 10.0
4.59016704 9.206347487220516 10.0
4.589297999999999 11.630698448318414 10.0
6.72322572 12.864252008446895 10.0
8.87484096 14.133793150306593 10.0
11.03841828 15.352628989748933 10.0
21.66294348 4.311878962998035 10.0
21.65793372 6.765645689371038 10.0
23.792526 7.992233911099929 10.0
0.343528956 9.223898565899708 10.0
2.468779056 10.432463482617232 10.0
0.341297568 11.661589920881568 10.0
23.777292239999998 12.90291553939377 10.0
21.65386968 14.13818091997639 10.0
19.531341719999997 0.6164481892414352 10.0
19.53083052 3.076318440957807 10.0
19.52993592 17.831285979047024 10.0
19.52804448 15.369884926970517 10.0
12.4957728 0.6492580812790509 10.0
12.4535988 3.1012874082715913 10.0
12.49503156 17.839353178888356 10.0
12.431361599999999 5.547557541621306 10.0
10.295951399999998 6.774047382864327 10.0
8.16069456 7.994457310080589 10.0
6.0232395599999995 9.211384568097055 10.0
3.8843787599999997 10.409107955271715 10.0
6.0224983199999995 11.641815443221715 10.0
8.156323800000001 12.890342513299597 10.0
10.31330664 14.126788459712655 10.0
20.948976 5.537384999382357 10.0
20.947851359999998 7.993316096444499 10.0
23.080961159999998 9.22183257569644 10.0
25.20865224 10.452552777831869 10.0
23.073702119999997 11.678609744937063 10.0
20.94537204 12.908995453420532 10.0
18.82143828 1.8465485943158826 10.0
18.82171944 19.061376546072886 10.0
18.81875448 4.3061532187204055 10.0
18.8200836 16.599621324247245 10.0
18.81742536 14.139991120916395 10.0
13.178352599999998 1.8651897287785135 10.0
13.197241439999999 19.074795644345542 10.0
13.14849852 4.31911976675806 10.0
13.1880654 16.62270138623233 10.0
13.13628084 6.770682770247577 10.0
11.003477759999999 7.997546457336904 10.0
8.87093028 9.218881161120343 10.0
6.73490664 10.432089636770925 10.0
8.87062356 11.669539064139856 10.0
11.004627959999999 12.905807925678348 10.0
19.52735436 5.535417389664959 10.0
19.525923 7.993355448638847 10.0
21.65854716 9.221557110336004 10.0
23.7881808 10.451608325167516 10.0
21.6559656 11.678590068839888 10.0
19.526459759999998 12.909782497307491 10.0
17.403906239999998 1.846930310601058 10.0
17.406666719999997 19.06090431974071 10.0
17.398870919999997 4.306546740663886 10.0
17.4040596 16.599601648150074 10.0
17.39800188 14.141033954066616 10.0
14.579858519999998 1.8580630463820973 10.0
14.5906704 19.065508526479423 10.0
14.563909079999998 4.3146729687967404 10.0
14.58208224 16.591160602462434 10.0
14.555627639999999 6.769108682473659 10.0
12.42435816 7.99782192269734 10.0
10.292960879999999 9.221399701558614 10.0
8.16064344 10.439546877599865 10.0
10.292245199999998 11.675107399640094 10.0
12.41272836 12.91214362896837 10.0
18.81589176 6.764602856220816 10.0
18.815380559999998 9.222855732749487 10.0
20.94734016 10.450447435434253 10.0
18.81589176 11.681187313666854 10.0
16.69845024 0.6174890547819388 10.0
16.692597 3.0793092077282527 10.0
16.69990716 17.82833456447093 10.0
16.686769319999996 5.537266942799313 10.0
16.69101228 15.369353672346818 10.0
16.68618144 12.914406380143378 10.0
15.29083548 0.6196967128848597 10.0
15.27882228 3.082004833041088 10.0
15.293826000000001 17.82715399864049 10.0
15.26824044 5.539195200322364 10.0
15.27245784 15.372246058631395 10.0
15.263793 7.996582328575379 10.0
13.132753559999998 9.225512005867975 10.0
11.00209752 10.449227517409465 10.0
13.12738596 11.683430388744688 10.0
13.13939916 14.131077848896581 10.0
17.39508804 6.765252167427558 10.0
17.393963399999997 9.224075650774274 10.0
19.52597412 10.45107707054382 10.0
17.39467908 11.683135247287078 10.0
15.26568444 12.919305728339701 10.0
14.557800239999999 14.154630137213838 10.0
16.684008839999997 7.9953820866477665 10.0
14.55279048 9.226259697560586 10.0
12.4212654 10.452198608082737 10.0
14.55128244 11.687188523304918 10.0
16.68354876 10.45483520510405 10.0
15.262438320000001 10.456133827517533 10.0
