N=191, ave_E=-6.461741361256545 
1
25.56 0 0
0 19.676097173982445 0
0 0 10
C
191
C
2.4367932719999996 0.6024171643466684 10.0
3.82648536 0.6053803845810701 10.0
1.735132932 1.8403722674129697 10.0
1.740830256 19.052640358927636 10.0
4.4868024 1.8409231981338412 10.0
4.5572202 19.033318431502785 10.0
0.334559952 1.841956193235475 10.0
2.441460528 3.0803520408784735 10.0
2.447937432 17.84623981289925 10.0
0.340725024 19.07276900633662 10.0
5.83690716 1.8388926249054862 10.0
3.8292969599999997 3.081139084765433 10.0
3.8637262799999994 17.847007180689037 10.0
5.97316752 18.98168835251826 10.0
25.184881439999998 0.613077673795532 10.0
25.197584759999998 3.0694121308497393 10.0
1.751327748 4.301942533925174 10.0
1.7526645359999997 16.639504773218906 10.0
6.65002188 0.46181570916082454 10.0
6.647159159999999 3.231956369604008 10.0
7.4561076 1.8431170829687402 10.0
4.56343128 4.3472369096196815 10.0
4.5840837599999995 16.650759500802426 10.0
6.726292919999999 17.802480172784314 10.0
23.78864088 0.6195688182532288 10.0
23.78797632 3.0662836313990764 10.0
0.349435872 4.299187880320816 10.0
2.461520016 5.527291161532104 10.0
2.4663431879999997 15.43072341943247 10.0
0.352825128 16.601116707632467 10.0
8.26191216 0.44547667806754954 10.0
8.26446816 3.2354193627066294 10.0
5.9766181199999995 4.3952269106270245 10.0
9.06641316 1.8371847396707843 10.0
3.8728256399999994 5.537345647188009 10.0
3.8850177599999998 15.471610349360006 10.0
6.03262008 16.63397578991302 10.0
8.20396764 17.78510617897969 10.0
23.07878856 1.8454447652644224 10.0
23.101332479999996 19.08225288517448 10.0
23.087325599999996 4.27766223001248 10.0
25.212384 5.51412785252271 10.0
1.76043222 6.731783126134614 10.0
1.7424507599999999 14.175171982663477 10.0
25.21049256 15.383185968660129 10.0
8.943239519999999 18.961382620234705 10.0
8.9419104 4.400165611017694 10.0
6.727391999999999 5.579924721472507 10.0
10.41258168 1.8422946221068677 10.0
4.593770999999999 6.745871211711185 10.0
4.58270352 14.344838968594726 10.0
6.750626039999999 15.451304617076456 10.0
8.90022204 16.58482489917241 10.0
21.65836824 1.8477134192685825 10.0
23.810009039999997 17.844724753416855 10.0
21.68456724 19.079104709626645 10.0
21.66089868 4.268296407757664 10.0
23.80947228 5.505568750252028 10.0
0.36087908399999996 6.738256562104854 10.0
2.457432972 7.936275090737123 10.0
2.4376572 12.957398652468529 10.0
0.35545269599999996 14.159962359547988 10.0
23.84155008 15.376791237078583 10.0
10.339326719999999 19.008605253452266 10.0
10.34875836 4.3569569016236285 10.0
8.205143399999999 5.583387714575128 10.0
6.03576396 6.7586803509714475 10.0
11.0701638 0.6064665051450739 10.0
11.07563364 3.089835919716333 10.0
3.8884683599999996 7.935133877101032 10.0
3.8409778799999996 13.07173645314654 10.0
6.05570076 14.33002286742272 10.0
8.19088092 15.394834218187126 10.0
10.31046948 16.58191283679066 10.0
20.9537046 0.6326671961419489 10.0
20.949052679999998 3.0623484119642796 10.0
23.1470082 16.598539138902677 10.0
21.00497796 17.849230579669698 10.0
20.962599479999998 5.466511697361672 10.0
23.118150959999998 6.707286385153005 10.0
25.226518679999998 7.963998711655264 10.0
1.7392532040000002 9.157117892091213 10.0
1.749022236 11.652204422529577 10.0
25.22373264 12.914583465017945 10.0
23.156720999999997 14.142588365743363 10.0
11.02382352 17.81115733163804 10.0
11.05063596 5.5582810145811266 10.0
8.91451008 6.771745279494972 10.0
6.761284559999999 7.951287952880872 10.0
12.44393712 0.623191187742959 10.0
12.45566916 3.097745710780274 10.0
4.5858218399999995 9.137933697346579 10.0
4.2248379599999994 11.51708866323584 10.0
5.330921399999999 12.321427839611069 10.0
6.820634879999999 13.060698162631937 10.0
8.914663439999998 14.156145196696235 10.0
10.997113319999999 15.364651085122237 10.0
19.519021799999997 0.6456573554962121 10.0
19.51536672 3.068566058671258 10.0
21.7529658 16.590294854186777 10.0
19.59419376 17.84757778750708 10.0
19.48893768 5.468735096342333 10.0
21.71017836 6.660909824113929 10.0
23.85113508 7.972144615885293 10.0
0.361566648 9.183562566693045 10.0
2.4250612319999996 10.33221376751579 10.0
0.366080544 11.670660601678772 10.0
23.84724996 12.922670340956449 10.0
21.773925 14.141506180398792 10.0
12.40102188 17.834729296052473 10.0
12.45019932 5.544035520227164 10.0
10.347020279999999 6.7687741888217 10.0
8.21475396 7.9610276209819935 10.0
6.0707556 9.145725431827476 10.0
13.15320156 1.8731742890117156 10.0
13.11861888 19.09333052788343 10.0
13.149572039999999 4.325848991991562 10.0
3.7848992399999997 10.288375423012159 10.0
6.4376694 11.51846599003802 10.0
8.22773844 12.94791477363067 10.0
10.30461624 14.144988849598587 10.0
12.362221799999999 15.367484443115291 10.0
18.808402679999997 1.8714309868021008 10.0
18.799073279999998 19.109838773412402 10.0
18.79263216 4.274100856423988 10.0
21.088533599999998 15.349854660047402 10.0
18.99514404 16.568788879975614 10.0
18.736936919999998 6.653531287673685 10.0
21.03572664 7.828017204085871 10.0
23.19449868 9.219687881104477 10.0
25.22915136 10.44348209703466 10.0
23.156184239999998 11.709619274083257 10.0
21.06483948 12.916708483512734 10.0
13.071716279999999 16.621265031138627 10.0
13.182186600000001 6.72731665207612 10.0
11.03775372 7.989439905301224 10.0
8.942396039999998 9.176597228293454 10.0
6.881007599999999 10.294750478496528 10.0
14.548803119999999 1.886831468060177 10.0
14.49888444 19.126701188690507 10.0
14.551742519999998 4.309694916211723 10.0
8.923941719999998 11.651653491808705 10.0
11.006672759999999 12.903505822308992 10.0
13.043344679999999 14.132297766921369 10.0
17.37366876 1.89344657193007 10.0
17.314292879999996 19.199109226290762 10.0
17.348211 4.2801414182564015 10.0
19.7479116 15.307924896969647 10.0
17.32968 17.03635197712096 10.0
17.67834396 15.676104027289204 10.0
17.3231622 6.68196324809009 10.0
19.40696676 7.813456892177125 10.0
21.845007359999997 9.217739947484253 10.0
20.21164668 9.204104412142682 10.0
23.85967212 10.454815529006876 10.0
21.7652346 11.747318676268609 10.0
19.63534536 12.885935067532625 10.0
14.44275468 16.636041780116287 10.0
14.603194799999999 6.789355386465686 10.0
10.35018972 9.204084736045507 10.0
8.24762412 10.345868978954535 10.0
15.230437199999999 0.6907785815355887 10.0
15.2649432 3.1027631155596396 10.0
15.174128519999998 17.945623779725036 10.0
10.320872399999999 11.665210322761581 10.0
12.38594148 12.914681845503813 10.0
14.3689374 14.173125668557383 10.0
16.65474264 0.7069779123389284 10.0
16.667676 3.094676239621133 10.0
16.55592768 18.065510239806112 10.0
16.62003216 5.4940188812109 10.0
19.007617319999998 14.06945231254767 10.0
17.49515544 14.061798310746989 10.0
16.335165959999998 15.173615857660042 10.0
18.5312556 9.119182376739774 10.0
21.05016804 10.591564404366054 10.0
19.385215199999998 10.527380975384524 10.0
18.773564399999998 11.71965408364199 10.0
15.03454536 15.36234898175288 10.0
15.290861040000001 8.014153083351745 10.0
11.03581116 10.438366311769428 10.0
13.108880519999998 11.705861139523028 10.0
16.67171448 12.902266228187031 10.0
17.16619824 9.244735552806956 10.0
17.3221398 11.697321713349519 10.0
14.56590276 9.243063084547167 10.0
12.42425592 10.4557796577684 10.0
14.507319239999998 11.696160823616255 10.0
16.57427976 10.483483602589368 10.0
13.160383919999997 9.248237898103925 10.0
15.225785279999998 10.491904972179833 10.0
