N=248, ave_E=-6.801207258064516 
1
29.82 0 0
0 22.13560932073025 0
0 0 10
C
248
C
2.522029482 0.5929421397525371 10.0
3.94423176 0.5973382717636341 10.0
1.821468222 1.7937281114523267 10.0
1.81178865 21.518712024570817 10.0
4.65543876 1.8145842825543188 10.0
4.65436524 21.524312333728965 10.0
0.39058236 1.7861223160897237 10.0
2.54703057 3.0089155105761836 10.0
2.52402444 20.30966504347253 10.0
0.381982272 21.516741955341274 10.0
6.06783324 1.821716375877458 10.0
3.9611397000000004 3.017991110397683 10.0
3.94924152 20.30627829524646 10.0
6.07510932 21.532878814536087 10.0
29.491323960000003 0.5823059794739261 10.0
29.527614900000003 2.9856288495707752 10.0
1.8677100960000002 4.200541767139055 10.0
1.818009102 19.107900677840767 10.0
29.4954093 20.313981487290075 10.0
6.76937856 0.6070801534256874 10.0
6.77921916 3.0473429283569717 10.0
4.67992098 4.243684069705158 10.0
4.661313300000001 19.083551507587963 10.0
6.77110812 20.31526535263068 10.0
28.05191256 0.5757139950182127 10.0
0.456675408 4.189651047353256 10.0
28.090439999999997 2.982153558907421 10.0
2.597104314 5.423689131374647 10.0
2.5199599740000003 17.8940724051292 10.0
0.38822956200000003 19.112792647500648 10.0
28.06318452 20.309023110802233 10.0
8.16608772 0.6038240052946081 10.0
8.185590000000001 3.054492730167567 10.0
6.0843237 4.2578729952797465 10.0
3.99388206 5.442924975874361 10.0
3.9438739200000006 17.867089097367234 10.0
6.09857766 19.087226018735205 10.0
27.35317032 1.774087185302043 10.0
27.34383666 21.504744455089437 10.0
29.625722699999997 5.377846284471414 10.0
27.43717326 4.176657444681987 10.0
1.92495555 6.606815313958358 10.0
1.8060065520000002 16.718383787277258 10.0
29.500419060000002 17.915123369593218 10.0
27.359313240000002 19.107546508091634 10.0
8.8827816 1.8335810624733697 10.0
8.87926284 21.527012878066092 10.0
8.89673736 4.286538609350092 10.0
6.79609728 5.491136332974912 10.0
4.70401554 6.676276856006809 10.0
4.68594462 16.65337150270227 10.0
6.81440676 17.883469448264574 10.0
25.91396766 1.767552753430563 10.0
25.90979286 21.49084329243602 10.0
28.21839762 5.375632723539342 10.0
0.556778166 6.592892015695619 10.0
25.99928268 4.2078686538242165 10.0
2.6096674799999997 7.827394947512745 10.0
2.475662364 15.531804449639512 10.0
0.38517003 16.716280904391787 10.0
28.07078862 17.9152119120305 10.0
25.922734740000003 19.098161009739645 10.0
10.2971442 1.8362793932495665 10.0
10.2853653 21.50394757315389 10.0
10.303943160000001 4.294374615049631 10.0
8.19668304 5.505303122940179 10.0
6.10314012 6.700736704306216 10.0
4.0130563200000005 7.875473490957371 10.0
6.120376080000001 16.65633767435125 10.0
8.226175020000001 17.858721837043998 10.0
25.193218260000002 0.5488878500824197 10.0
25.2107226 2.967853955286229 10.0
25.2055041 20.28961018142795 10.0
27.61677912 6.575736918472052 10.0
29.72251842 7.765880089210435 10.0
25.46100186 5.487129787687859 10.0
1.916021478 8.995092610399906 10.0
1.8080790420000001 14.327870794294315 10.0
29.4854196 15.506127142827463 10.0
27.360595500000002 16.71814029557473 10.0
25.21450974 17.896640135810408 10.0
11.00217846 0.6088155851964328 10.0
11.008887960000001 3.073175184434264 10.0
10.98661242 20.290340656535534 10.0
11.010110580000001 5.528169207368493 10.0
8.9021646 6.743657650779111 10.0
6.8120211600000005 7.9441160154609545 10.0
4.75930182 9.109577981806723 10.0
6.84506172 15.450987340009526 10.0
8.941079700000001 16.63358226796954 10.0
23.75589426 0.5299884668443803 10.0
23.78574408 2.876677380494141 10.0
23.767076760000002 20.28060098843441 10.0
26.20050804 6.623881868744641 10.0
28.40754588 7.702040991929448 10.0
0.570310482 9.030155415563943 10.0
24.14370336 5.862306230064917 10.0
2.619203916 10.11431328887467 10.0
2.6133442860000002 13.193642172700097 10.0
0.360526782 14.275719298734673 10.0
28.05716088 15.525296580499218 10.0
25.91814246 16.710260018656548 10.0
23.77632096 17.885306703838193 10.0
12.41782332 0.618400304032309 10.0
12.42283308 3.0849955998115335 10.0
10.31044392 19.05349135013041 10.0
12.4104876 20.29629513544281 10.0
12.420477300000002 5.5374661632832005 10.0
10.30209432 6.752998877912461 10.0
8.19918792 7.965432607236818 10.0
6.11256324 9.146522313763022 10.0
4.20649866 10.390145116620289 10.0
6.12803982 14.29776636561812 10.0
8.231125140000001 15.420750097677407 10.0
10.32460842 16.615276119061296 10.0
23.064219360000003 1.7173336965646224 10.0
23.04999522 21.47807104585796 10.0
22.964203079999997 3.9271669920280363 10.0
23.06499468 19.079788454003438 10.0
25.24895184 7.788303461452335 10.0
27.78302562 8.788877273967984 10.0
29.63604042 10.29620159066311 10.0
22.82518224 6.956048822211518 10.0
22.801982279999997 5.340237884235494 10.0
3.0404472 11.508945218517958 10.0
1.60890828 11.957390527746632 10.0
4.07439606 13.352531576404296 10.0
29.3853735 13.019589876611194 10.0
27.313986840000002 14.343166500334938 10.0
25.17803988 15.5133212158567 10.0
23.05589958 16.678694639765187 10.0
13.13040204 1.8585854467620664 10.0
13.1219928 21.527721217564356 10.0
13.13231052 4.328175690482386 10.0
11.01184014 17.826492389873014 10.0
13.12458714 19.065112545023794 10.0
13.11134706 6.757182508074078 10.0
11.00122422 7.987701030213472 10.0
8.89214508 9.21253070075744 10.0
6.769318920000001 10.427642838809605 10.0
6.761863920000001 12.985678123131835 10.0
4.77650796 14.471597305613814 10.0
8.91048438 14.171836884192487 10.0
11.0241558 15.38106095016534 10.0
21.595137060000003 1.776511034522663 10.0
21.61499718 21.488519053457345 10.0
21.430530660000002 4.312592221520592 10.0
21.632203320000002 19.075472010185898 10.0
23.76096366 8.042110357923828 10.0
25.313720879999998 9.511095799275449 10.0
26.48174046 8.70905626675743 10.0
28.337946000000002 9.99668466094431 10.0
0.2583667422 11.722620255290968 10.0
21.381357480000002 6.893980573676192 10.0
27.952254120000003 13.147998546280752 10.0
25.83437808 14.338761514080113 10.0
23.7380619 15.495324965478948 10.0
21.62528508 16.663155442022035 10.0
14.546971319999999 1.862997073699688 10.0
14.53617648 21.52818606536009 10.0
14.549565659999999 4.320051921861678 10.0
12.42310146 17.83251327560825 10.0
14.539426859999999 19.06772454692364 10.0
14.50680378 6.789544768900987 10.0
12.40222746 7.989471878959131 10.0
10.29440076 9.219724773786677 10.0
8.175689760000001 10.4486716676643 10.0
6.0455577 11.709117533605323 10.0
8.18016276 12.94612178927569 10.0
10.31217348 14.154061989907941 10.0
12.42820068 15.376877320003722 10.0
20.89424778 0.5739674954428071 10.0
20.816208839999998 3.0297451189469906 10.0
20.915330519999998 20.28474034737739 10.0
20.704562759999998 5.602257091764977 10.0
20.92403796 17.86365807792252 10.0
24.81190992 10.742588288224956 10.0
27.32671998 10.8281645538589 10.0
20.74285164 8.056166469842491 10.0
27.0436089 12.089473708563428 10.0
25.009258680000002 13.136952877229707 10.0
22.9715388 14.280035742552217 10.0
20.89553004 15.439233331460217 10.0
15.24803952 0.6235025619807372 10.0
15.26885388 3.1075739213186786 10.0
15.24511716 20.2960737793496 10.0
13.13424882 16.60604556997455 10.0
15.25078296 17.83915395840447 10.0
15.206321339999999 8.005653009372585 10.0
13.105442700000001 9.225679252693952 10.0
10.99690032 10.454559739743614 10.0
8.8787559 11.693379115378281 10.0
11.0064129 12.92009031271451 10.0
13.12715166 14.148660901233681 10.0
19.473384420000002 0.5867331013380722 10.0
19.410464219999998 3.0263362351115983 10.0
19.49234994 20.28659973856033 10.0
19.31838006 5.559159060417516 10.0
19.500610079999998 17.85522441077132 10.0
23.46941352 10.7069720928279 10.0
25.60318362 11.988933771028673 10.0
19.35297126 8.038325168729983 10.0
21.46506222 9.292041809437503 10.0
23.60673462 13.105077599807855 10.0
21.5698497 14.250196941187872 10.0
19.48233042 15.419975351351182 10.0
16.65736254 0.6128951779942433 10.0
16.67084118 3.0658261621397807 10.0
16.65918156 20.293993032073455 10.0
14.544019140000001 16.608923199186247 10.0
16.665354299999997 17.841943045178883 10.0
16.57476114 8.009836639534203 10.0
14.50605828 9.231523053554627 10.0
12.4027344 10.455577977772368 10.0
10.29195552 11.688885586686174 10.0
12.41394672 12.916902784972327 10.0
14.53414872 14.149679139262435 10.0
18.750159959999998 1.8156866358984913 10.0
18.77640156 21.50901662768834 10.0
18.67698168 4.277595823184517 10.0
18.789760920000003 19.069982379074357 10.0
18.63311646 6.771902688272363 10.0
18.78686838 16.62875670513762 10.0
22.84170252 11.867940530481562 10.0
18.68142486 9.256314935993844 10.0
20.81069214 10.538763597599672 10.0
20.83186434 12.998937353114954 10.0
18.75770442 14.17984997476659 10.0
17.367883680000002 1.8317880781183902 10.0
17.363291399999998 21.51510392025154 10.0
17.371551540000002 19.067768818142284 10.0
15.247294019999998 15.382809663301675 10.0
17.37161118 16.620455851642348 10.0
17.25680418 6.799948505281729 10.0
17.2909779 9.24832398102906 10.0
15.210973260000001 10.466136663418355 10.0
13.11206274 11.688531416937042 10.0
15.229759860000001 12.924495298969337 10.0
21.5003691 11.809502521874833 10.0
19.408018979999998 10.506954727005782 10.0
19.440463140000002 12.97128997707336 10.0
17.35192998 14.167808203296113 10.0
16.657302899999998 15.387303191993785 10.0
16.60678782 10.470917955031634 10.0
14.51586906 11.690612164213192 10.0
16.634162579999998 12.929276590582615 10.0
18.721711680000002 11.722243949932514 10.0
17.32336242 11.708276380451135 10.0
