N=243, ave_E=-5.691602057613168 
1
29.82 0 0
0 22.13560932073025 0
0 0 10
C
243
C
4.09583664 1.4686821835039277 5.0
4.75187664 2.893832477717707 5.0
4.04114676 22.006625125218353 5.0
2.61425976 1.3931687658671885 5.0
6.12827838 1.9626870038365285 5.0
5.8360722 4.260020149383857 5.0
3.6921633 3.9625396957225636 5.0
4.97609322 21.079364450772964 5.0
2.415753984 21.809529659826573 5.0
1.81998915 2.4346513979684787 5.0
6.8406185399999995 0.7155402119754016 5.0
6.83113578 3.193747848404281 5.0
5.4521397 5.672847549888786 5.0
2.338207074 3.665413411810401 5.0
3.94366518 5.487793855967482 5.0
4.7494314 19.48365264606016 5.0
6.27120564 21.55390764339078 5.0
2.7806941259999998 20.31807657501441 5.0
0.975075234 21.842644531370386 5.0
0.5099876040000001 2.2168812734711345 5.0
8.222536980000001 0.761263526588302 5.0
8.186574060000002 3.2474045653977313 5.0
6.70270104 6.392763971826896 5.0
1.571332098 4.754418983562368 5.0
2.45220297 5.862881755907255 5.0
3.98744094 18.15865934333989 5.0
6.25939692 19.27442686676062 5.0
6.98402292 20.410359930272534 5.0
1.8724783140000003 19.288173080148795 5.0
29.9807298 0.896002980523587 5.0
29.41814568 3.3134129523921487 5.0
8.88582324 2.0217005382855957 5.0
8.955482759999999 21.65792287158889 5.0
8.83647114 4.476063696354185 5.0
6.883947 7.817788093067548 5.0
8.17369182 5.743969262636292 5.0
0.16858259879999998 4.6244386856310395 5.0
1.73252709 7.005654722699275 5.0
4.75199592 16.9609236586045 5.0
2.416887144 17.837117482346965 5.0
6.89867808 18.035474677470027 5.0
8.29944276 20.390349339446594 5.0
0.401254938 19.56391636545713 5.0
28.72518852 0.5730377998513364 5.0
28.005453000000003 3.2497066687670872 5.0
10.231420920000001 2.0735354946319497 5.0
10.30030512 21.68428638228988 5.0
6.0618096 8.908586649174493 5.0
8.22695034 8.034075131740403 5.0
8.981098139999999 6.906332243677158 5.0
0.344394162 6.713531086493598 5.0
2.305360344 8.35437739861137 5.0
4.07869014 15.66815980305521 5.0
6.1484068800000005 16.899519478348793 5.0
0.871447752 17.313433237037128 5.0
2.69501232 16.284282352888415 5.0
8.9252751 19.08850988407581 5.0
29.79223758 18.20651653069131 5.0
28.8936417 20.104467945069363 5.0
28.4851077 21.340608911976222 5.0
27.414271499999998 1.0245931621895732 5.0
26.98876992 2.2255141611062195 5.0
27.43159692 4.438610245383509 5.0
10.98595638 0.8478093319104931 5.0
10.815266699999999 3.355514881320178 5.0
10.982497259999999 20.294878456446284 5.0
4.68585516 8.780797776565917 5.0
6.67470006 10.21066959624781 5.0
8.7639489 9.24588906400378 5.0
10.35699294 6.982611553396395 5.0
29.423543100000003 7.821949587619844 5.0
2.550781926 9.860152222654044 5.0
5.46141372 14.769055623665789 5.0
3.43180488 14.311977426802029 5.0
6.6462816 15.568217526972113 5.0
30.1611408 15.903284245260005 5.0
1.6243729320000002 15.3537898794822 5.0
10.31107014 18.915431554797017 5.0
28.46190774 17.79005717693109 5.0
27.782757240000002 19.287066299682756 5.0
26.774930700000002 21.801051721456734 5.0
25.55940786 2.3861965491654002 5.0
28.08721944 5.595439324094193 5.0
26.11966602 4.3909744141252975 5.0
12.49153836 22.982075021154976 5.0
12.159701400000001 3.446403693191096 5.0
12.43586442 19.79454727896982 5.0
12.390418740000001 21.43413186135631 5.0
3.93054438 9.936564346029206 5.0
8.012067420000001 10.365242556134467 5.0
5.91950856 11.277760914772252 5.0
10.1070417 9.413588440217634 5.0
11.21926806 5.878044648291955 5.0
10.937946179999999 8.22497262652238 5.0
28.0624092 7.862280667802215 5.0
0.312477816 8.950821391758446 5.0
1.84187703 11.162124491680755 5.0
5.30700576 13.312510394752419 5.0
1.8874330439999998 13.84546946036764 5.0
8.01743502 15.239149558810137 5.0
29.20469412 14.720423689988145 5.0
11.04109356 17.54448472712691 5.0
27.5645643 16.396996875549572 5.0
26.86310844 17.980888264885106 5.0
26.69683212 20.229556273340812 5.0
25.32233886 22.09620793613935 5.0
24.60767274 1.3432374719224172 5.0
27.32892666 6.751316571604084 5.0
25.29171372 5.404763185405422 5.0
12.8910369 2.26221500135999 5.0
14.23171428 22.492656699073628 5.0
13.0786047 4.588224828782325 5.0
13.166007120000002 18.644336747446033 5.0
13.74651306 20.69298739007962 5.0
4.59281676 11.14492512323855 5.0
8.739705240000001 11.658626208744737 5.0
10.15588686 10.828385909952107 5.0
12.75368598 5.963421693442012 5.0
12.3023901 8.074738246062585 5.0
27.410722919999998 9.019331102606106 5.0
29.5401393 10.120931836061569 5.0
2.5720912979999997 12.372366795682362 5.0
30.300698399999998 11.238735835539805 5.0
4.02086916 12.312202209548616 5.0
0.419901384 13.633565272340288 5.0
8.91418206 16.339975545939375 5.0
27.68748234 13.864151914634336 5.0
12.489480780000001 17.48148678300011 5.0
10.33534362 16.29906893991466 5.0
26.8509717 15.144630507010618 5.0
25.4063418 18.297383206952908 5.0
25.44012786 19.728051908570347 5.0
24.6976695 20.87886010154579 5.0
23.1076671 2.0929019392266563 5.0
25.73206566 6.7666565488633506 5.0
23.932905780000002 5.005569606915373 5.0
14.16745218 2.6523551156378606 5.0
15.093929759999998 1.7261569504398655 5.0
15.54328734 21.749608565395356 5.0
14.38656954 4.013208105457715 5.0
14.57151318 18.74686888981966 5.0
15.257820480000001 20.114495376091654 5.0
8.15016384 13.03674497383476 5.0
11.37704568 11.3416664188812 5.0
14.127075900000001 6.812787158687753 5.0
13.194157200000001 9.087132473955503 5.0
26.03983788 8.820420517250025 5.0
28.14706818 10.172662755044115 5.0
29.675522100000002 12.423632866869175 5.0
28.360728480000002 12.49329362940151 5.0
26.338902660000002 13.061204822134167 5.0
13.25287278 16.315427155202684 5.0
11.1400065 15.057836782864037 5.0
25.296425279999998 15.140911724644736 5.0
25.323561480000002 16.58904542201623 5.0
24.05096316 17.534944279509673 5.0
23.44469274 20.91131090480998 5.0
21.52350942 2.04135253224054 5.0
24.23086722 7.513578414172752 5.0
23.184334319999998 6.532107632500893 5.0
22.37993982 4.998021364137004 5.0
16.414955759999998 2.219294054887094 5.0
16.82715762 22.217953787403367 5.0
15.640947839999999 4.561883453690656 5.0
15.3328476 17.621738003656258 5.0
16.77410784 20.04928387103278 5.0
12.76746282 10.483955828921543 5.0
11.5506279 12.69302323230246 5.0
14.546673120000001 8.491042650557558 5.0
15.789183060000001 6.091918905548851 5.0
24.9587436 9.645060506884509 5.0
27.59650152 11.372744814367506 5.0
26.27308992 11.668233063189932 5.0
25.24892202 13.721576454999513 5.0
14.69660808 16.394628365352254 5.0
12.64454478 15.112069025699824 5.0
10.58392314 13.76184112835392 5.0
23.74116318 15.19503328943392 5.0
23.04665538 16.378513641766766 5.0
23.02411146 18.539436094875093 5.0
22.60022016 19.85918325818635 5.0
22.88705874 22.142250003526467 5.0
20.82581088 0.7475305945657209 5.0
20.60335368 3.190139744085002 5.0
23.72998068 8.98455606036324 5.0
21.80817114 7.0164126288291495 5.0
20.99396586 4.624217329537832 5.0
17.33397834 1.307703178279849 5.0
16.77216954 3.549157191657926 5.0
17.5811265 21.199760029868415 5.0
16.750818419999998 17.72670506305516 5.0
17.41192782 18.934246822719636 5.0
13.70700156 11.568335058325477 5.0
12.954613140000001 12.77817892135931 5.0
15.941980740000002 7.852253236779925 5.0
17.37187956 5.7594863247701245 5.0
25.05455526 10.990462841398493 5.0
24.087910139999998 13.099034578463296 5.0
15.530464740000001 15.280078300444167 5.0
13.53696792 13.95129980853005 5.0
23.11431696 13.967193176022334 5.0
21.42054096 16.09137051765825 5.0
21.90103062 17.639048050145067 5.0
21.10072146 20.177958168014186 5.0
21.5439063 21.797244396653568 5.0
19.50260802 0.5373928281621645 5.0
19.171188540000003 2.836656198842261 5.0
22.4793597 9.885298274842395 5.0
20.832281820000002 8.041711916956054 5.0
19.87798218 5.675924399584368 5.0
18.68637498 1.566426393581476 5.0
18.22213722 3.780961292464613 5.0
18.936326219999998 21.37748683710456 5.0
17.53096926 16.63351586114158 5.0
18.79858764 19.06128308461131 5.0
16.97273886 8.870203502612346 5.0
18.584271299999997 5.016925174496908 5.0
17.842081320000002 6.95638085635133 5.0
23.9304009 11.776166294237813 5.0
15.00774996 14.019920197424314 5.0
16.9262793 15.422100369845973 5.0
21.84201684 13.58719117081336 5.0
20.84972652 14.527954566944395 5.0
19.7864646 15.722679808812167 5.0
20.84838462 18.521882556683753 5.0
19.60662018 20.23382844593971 5.0
21.14008386 9.458346642264148 5.0
22.662096660000003 11.282188036636398 5.0
19.45376286 7.442788735565056 5.0
18.94908918 16.783418207461562 5.0
19.54531026 18.01769978318548 5.0
18.51070536 8.93003605460628 5.0
16.44731046 10.202346607143213 5.0
16.04623146 12.821697529283867 5.0
17.6841546 14.32984086352386 5.0
21.57032682 12.252679556085175 5.0
19.169906280000003 14.227153771884993 5.0
20.087020380000002 10.506312794335482 5.0
18.82277166 10.166730411746158 5.0
17.654394240000002 10.925295607558263 5.0
17.654811719999998 12.236077849094626 5.0
20.2781964 11.849833602057204 5.0
19.083786120000003 12.765937929404945 5.0
