N=139, ave_E=-6.380961007194244 
1
21.299999999999997 0 0
0 17.21658502723464 0
0 0 10
C
139
C
2.5624751999999997 0.5798184288887054 10.0
3.983036099999999 0.6079520504817096 10.0
1.8452275199999997 1.7825019142097112 10.0
1.8443946899999997 16.539112406412958 10.0
4.680355499999999 1.881101296660684 10.0
4.664614799999999 16.568518333639474 10.0
0.46888968 1.7132929640587307 10.0
2.5322505 3.089567832892338 10.0
2.5407705 15.326823788305257 10.0
0.43506954 16.515095270299962 10.0
6.13866 1.9884122711354375 10.0
3.9408833999999993 3.1142047660663104 10.0
3.9355157999999997 15.366318634357734 10.0
6.0206154 16.483829951890506 10.0
21.040502099999998 0.5079271347904818 10.0
21.120590099999998 2.893109381146563 10.0
1.8434510999999998 4.379468816302812 10.0
1.8363390299999998 14.106116260119238 10.0
21.027785999999995 15.284247173532904 10.0
6.760279199999999 3.2754725180164175 10.0
7.518985199999999 1.2940932218646053 10.0
4.635455099999999 4.3876811273608025 10.0
6.760406999999999 15.24847110984631 10.0
19.605265499999998 0.49748183265445856 10.0
19.468285199999997 2.7981254815513097 10.0
0.45587324999999995 4.4706822837771005 10.0
20.118765899999996 4.078815591972213 10.0
2.5454351999999996 5.620061500195285 10.0
2.5316327999999997 12.916088686451753 10.0
0.4239040799999999 14.084233980549623 10.0
19.6212192 15.266548524124909 10.0
8.1705522 3.2719603346708617 10.0
6.040892999999999 4.430877539194134 10.0
7.963239299999999 0.021516599303636762 10.0
8.822374799999999 2.0108626980109516 10.0
3.9312983999999997 5.607545042880486 10.0
6.063982199999999 14.053536809446063 10.0
8.223503999999998 15.170032348462232 10.0
18.811904399999996 1.6949452493952069 10.0
18.942430799999997 16.531330509980645 10.0
18.636562799999997 4.405896274319617 10.0
21.131708699999997 5.8668956797307485 10.0
19.6127205 5.7270970093096025 10.0
1.8523204199999996 6.90596823587944 10.0
1.82511819 11.694899093884974 10.0
3.9359417999999997 12.904605224238589 10.0
21.014090099999997 12.858791891481117 10.0
18.9300768 13.990386375566167 10.0
8.879181899999999 4.430378258228345 10.0
6.7426214999999985 5.633886417972155 10.0
8.9868534 16.349420072582888 10.0
10.3749744 1.9035345069511707 10.0
4.636221899999999 6.831110524181024 10.0
6.740512799999999 12.83517073682375 10.0
8.871215699999999 13.972240094947463 10.0
17.409469799999997 1.8773997308798287 10.0
17.540038799999998 16.687863701048265 10.0
17.299007999999997 4.406343905530325 10.0
0.47970794999999994 6.977795828613064 10.0
18.832863599999996 6.8734461067629935 10.0
2.5467345 8.082790688831036 10.0
2.5315688999999995 10.493766822874921 10.0
0.40870227 11.677561992762548 10.0
4.648000799999999 11.69224773979078 10.0
19.608204899999997 12.833139179790537 10.0
17.553415199999996 13.935017838118581 10.0
10.286302499999998 4.4140913687925805 10.0
8.1713616 5.630150419021245 10.0
6.0431082 6.832969915363965 10.0
10.409075699999999 16.451445555454278 10.0
11.3516433 0.4870726853469925 10.0
11.005411799999997 3.2095674305321635 10.0
3.9371346 8.061958620948083 10.0
6.0403818 11.66248026427869 10.0
8.1538104 12.80225262625168 10.0
10.2655137 13.963373553658437 10.0
16.759585499999996 0.7318219364356573 10.0
16.649762699999997 3.1905086709070147 10.0
17.142176099999997 15.183943349164236 10.0
16.002540899999996 15.99090190597575 10.0
16.637302199999997 5.623969664996467 10.0
21.028957499999997 8.119272632503748 10.0
17.379159899999998 6.83574178555335 10.0
19.5539751 8.07506044215381 10.0
1.8330566999999998 9.295337555714145 10.0
3.9389876999999998 10.486535857163483 10.0
20.999755199999996 10.471591861359842 10.0
18.869478299999997 11.629097305910882 10.0
16.715813999999998 12.760622923655825 10.0
10.996188899999998 5.633645385781773 10.0
8.869980299999998 6.82826978765153 10.0
6.745113599999999 8.035634462441442 10.0
10.994314499999998 15.159323632575292 10.0
12.749519699999999 16.533844131394623 10.0
12.3675468 3.2487523780541494 10.0
4.639651199999999 9.264623168025558 10.0
6.741258299999999 10.441841602432781 10.0
8.848296899999998 11.601585203037363 10.0
10.9474545 12.74178797963603 10.0
15.347757599999998 0.7443470020429707 10.0
15.245368499999998 3.236717985120112 10.0
14.941332299999997 15.01644319343427 10.0
14.449557899999997 16.5063320285211 10.0
15.237189299999999 5.646712773817445 10.0
0.41034662999999993 9.299021904909974 10.0
16.681244099999997 8.04143645159562 10.0
18.842682899999996 9.240537165572457 10.0
19.562708099999995 10.447626375001933 10.0
17.425423499999997 11.605682750273843 10.0
15.2172951 12.659819818321365 10.0
12.416408999999998 5.64941577766672 10.0
10.290029999999998 6.832969915363965 10.0
8.161201499999999 8.027491017723559 10.0
6.0412551 9.249661955636892 10.0
12.345181799999999 15.118158777775173 10.0
13.611786299999999 0.6263359199737907 10.0
12.9346593 1.9963491168329928 10.0
13.116284399999998 4.444392558440513 10.0
8.152766699999999 10.42168098136589 10.0
10.253969099999997 11.589964008143978 10.0
12.332827799999999 12.669839870807216 10.0
14.537761199999998 2.0620820384669747 10.0
14.538911399999998 4.443376779923907 10.0
14.413049699999997 13.809715532290367 10.0
14.540061599999998 6.859931087516615 10.0
15.262238099999998 8.071238360277762 10.0
17.4019296 9.222890165919543 10.0
16.734281099999997 10.414863213695105 10.0
14.489644499999999 11.395382164166172 10.0
13.118350499999998 6.861463363584039 10.0
10.991034299999999 8.041247069160319 10.0
8.8621632 9.217432508465908 10.0
13.043480999999998 13.84475128282079 10.0
10.9518423 10.406289354351543 10.0
13.0439496 11.418658987122994 10.0
14.539081799999998 9.29848819077413 10.0
12.401775899999997 8.071272793447816 10.0
10.2842577 9.214798370956743 10.0
13.123568999999998 9.297575711767685 10.0
