N=191, ave_E=-6.34073612565445 
1
27.730546279067703 0 0
0 18.297415267423 0
0 0 20
C
191
C
1.8028986932789588 0.5971196795786089 10.535305555334762
2.3680000845176843 1.9289867071528022 10.714800861933881
0.6561241363451372 0.4970840508285539 9.69340170663284
2.6419057823345473 17.6967660164393 10.773777094161193
2.2232299946131833 2.724064292768134 11.919768422180862
27.62289629841236 1.6726124731333047 9.262043852943759
0.37759021035429746 17.51898832970102 9.091978047996879
3.770050958278091 18.21427181244783 11.497449499069667
2.8491749774428112 16.633942353215772 9.71053103803661
0.9913309797665076 3.4601144167307587 12.097478261011506
3.3277210145806824 3.501558062311472 12.453176918011625
26.333980507361293 1.4109868809320572 8.601588166212718
0.24100118621304717 2.975434183711991 9.693903869442725
1.473476441811402 16.4830618669206 8.916946410818941
26.72564674300685 17.21397041719308 8.749391419921473
4.708452644361742 0.7026994251546931 10.753132623088248
3.513432483011599 15.0443544018584 9.949058372730807
4.3932949859001384 17.188445522895027 8.99210344469802
-0.04406272881558741 3.5265889263973063 11.028652618110453
1.3662646037872703 4.735755316929688 12.789235429558559
3.004715611522102 5.001104433137856 13.038754550202405
4.64786140074198 2.9493786643711806 12.221847250259078
25.790239955921336 0.04448760358460158 8.622065249682372
25.46973030202787 2.577575186137145 8.35167847449452
1.031531952707272 15.200614328242192 8.253924114170722
26.36384630570385 15.791492759473082 8.584291447205658
5.058772635505205 0.18809559920758168 9.443101443840288
4.88847935080545 2.1840709733959462 10.93022870737348
2.9570468024683843 13.879431161442646 9.283023099223296
5.002590548743814 15.057382161528803 9.904644861990086
5.456872357887501 16.094845607191687 9.052865144693808
26.831577429792887 4.687303761301552 11.105818303229068
0.5573617957722375 5.908656230402038 12.629994022958034
4.2433559221692185 5.663928301200254 12.393252156032311
2.6531976607793837 6.732899895953641 13.28632081547449
5.898065349187467 3.8978800770038537 12.353581294051597
24.32764775352447 18.17859185267635 8.860313605037746
25.094009130492783 3.57441836990635 9.349364385995553
1.8940157222427196 14.0484626836831 8.326012375322748
27.375928053250984 15.010778644842677 7.964789927413921
25.381602625952997 15.162244648426405 9.427478600866166
6.4134098212376625 0.5521995250970854 9.074402349650992
5.952417219894441 2.7986262599828824 10.148361212386401
3.670831063691587 12.59418411822832 9.282186161206823
5.957935598603974 14.030128673585141 10.51812042806323
6.84448116314577 16.437812358964266 9.060397586842043
27.377342311111217 5.931033969274095 11.510896303200962
1.2157265602567235 7.158516072489167 12.993783080784038
5.606367732877954 5.255950832982523 12.688244908904409
3.489750596489275 7.786190605822846 12.629436064280387
6.658159622696714 3.653774259921164 11.065756870173999
23.71491360294219 17.103545516054183 9.538121806643613
24.979232399443724 5.039272841385701 9.139125556258069
25.650478002674834 13.859011246004203 10.037996985947778
23.993161904306355 15.639807186906145 9.394838018223801
7.38134453910852 17.781702618110682 8.994223687673085
6.887907198618789 1.8970028252653468 9.423126523180517
3.759069661951581 11.838299596115808 8.015675758815352
4.221920209895499 12.1066128935973 10.508635130543226
5.5863185479181885 12.646770889706893 10.90327930324312
7.35305938190387 14.45693418211305 10.505287378477338
7.700273551864077 15.770011593949128 10.008927338842359
27.437850363092142 6.996199701651857 10.566551241283008
1.0085017340225064 8.478198851236783 12.218834273399786
6.5704756353623015 6.236966752545408 13.043106627888054
2.581272942895366 8.886688647082002 12.031862320520194
4.955892308809864 8.247267173146637 12.781368212203734
8.0660117267387 3.4034839164780846 10.897197553656763
26.13784235352945 5.801396782104403 8.720210181080525
23.89632683669985 5.755177511138893 9.749364962000861
24.680602146564443 12.746491802914349 9.977402673555286
22.926173675126666 14.641975942712499 9.399580666983802
8.809689516850739 17.89375598920838 9.765266784313805
8.339961793429612 2.1582899152841475 9.955140122317161
3.333988118039752 11.37940042120884 11.38340274535857
6.633562628147181 11.746721032702355 11.469774748658363
8.421045910749605 13.564861998165108 10.90657125944124
8.88583759693306 16.44686957952164 10.364904975181297
26.558098782388722 7.016308561030756 9.404044336404983
27.645358040898408 8.441622318117204 11.14219720901167
8.140274129674046 6.0202704635333175 12.831417105588688
6.115916520755824 7.590206990893479 13.384186767533809
3.64279548140345 10.046561800883945 11.857556029623193
5.020088523445906 9.624257456511822 12.260569582487797
8.922552840206546 4.546340474081325 10.873707493327814
23.33350766941989 6.988935627790691 9.34780210169814
25.074237250995807 11.327234490281416 9.698702314070488
23.407908725086628 13.220321668679535 9.400473400868037
21.741829774093965 14.72056334128608 8.30229913152274
10.099548146475295 18.193211487475025 9.019722399241562
8.641392831483078 0.8469690553137431 10.608174958635495
9.416933019269765 2.3682710528930935 8.942891489329536
6.315326879048599 10.412455213986604 12.287965353560278
8.10025895139335 12.215427622192664 11.3825658073421
9.87839703989973 14.180277263269614 10.796988175151316
10.101239709798318 15.656018696833081 10.45769350327403
25.66908519922809 8.239326094920576 9.532040057057259
26.332982207695245 9.20493559082829 10.498815057816632
8.386216344623097 5.799310876763917 11.40867827345599
8.426813864375651 7.467266657711662 13.39763357166511
9.723826974940208 5.659262460307061 13.246594157626003
7.337447084348756 8.374306127348355 13.577798428677408
10.163577977833661 4.476609024497176 10.160636303294638
21.921773288898834 7.1063501415617445 8.839390154625974
24.204801433508198 8.21658240774317 9.234648081871281
24.441037957259578 10.6575124966632 8.512314777789161
26.10365058996736 10.646131504366862 10.500712117320635
23.13126879540665 12.772492430009358 8.053003194349952
20.349451314875694 15.199461591080343 8.654929015795798
22.087685147286493 13.580323314066083 7.393105466296561
11.443564532982869 17.48883418934031 9.449573764500997
10.290389765967838 1.2197788913874867 8.510696697623985
10.277023642661328 3.6225039772291376 9.016765218250029
7.4289301565234 9.799308828375258 13.132324220443849
9.117748155464902 11.383352662906603 11.99453488498559
11.115262595584985 13.384980108671074 10.757373109038365
11.419965838099381 16.1176990788607 9.950564861160455
9.783419918893921 7.954160877977789 13.379109343567222
10.766024095746408 6.82080067889834 13.2121123113474
11.543366769041233 4.714694991956884 10.838723484239335
21.370212723408176 8.319358989300286 8.255486398468136
23.679335312066144 9.41916172877928 8.604824326543074
23.892943710053803 11.632215807958824 7.547046265459436
19.054878492383697 14.777358518276163 7.823124219159286
20.201869347578494 16.016605859508186 9.8965544611642
21.161263057195402 12.767899778777235 6.610010462218657
12.628241200570919 0.13145320563498367 9.696972642169783
11.644694185144946 1.7114944805765786 8.579771981916714
11.726859793769824 3.2043348487074526 8.706428601742637
8.837115027120738 10.312807490440218 13.018500650203812
10.41856035086969 10.996581898983816 11.347079635443738
11.263426904354045 11.88933108729665 10.658781810698098
12.478745825580466 13.941477696614477 10.58647036607502
12.662516155771849 15.26090431154835 10.011996111569413
10.00096605445321 9.344270408089717 13.109113139453722
11.995929284315618 6.85745040167899 12.344877138680296
12.468596445642326 3.8979898614954585 9.960384933887045
12.206515052758858 6.05219945317497 11.106711037113307
19.887294030588752 8.521947971141191 8.036431821623829
22.261749786280202 9.44960862778427 8.175921491035638
18.814454656144182 13.409901188265305 7.38116515059491
18.049452075943538 15.90268615205321 7.630293700164401
20.38705393563011 17.544952361965493 10.00937370578447
21.91858427607674 11.44807062070748 6.5749706572624085
19.856235818756193 12.358934250135063 7.2574657117605135
14.003315798911052 18.01808692595052 9.902022456205145
12.501595795714419 3.779074959672476 7.558038051409081
10.902070155791515 9.79760716875539 12.015737314736189
12.693324792687891 11.484226313275906 10.443019190051906
13.455249282251556 12.812984609996164 10.332710759481053
13.88351983898548 15.49847795138057 9.224325846334803
12.806825918608116 8.06392707216706 12.464336091564569
13.52862430770597 4.850827761546511 9.473900762846416
13.408661964502723 6.20670282769309 10.141944687593458
19.155789950293226 9.880219998687803 8.041620837325947
21.64704676691211 10.707427845512731 7.825969808415291
17.535688245031253 12.942512012674252 6.822481126666723
16.632532083268295 15.80925954969775 8.063771796828544
18.573698053349315 17.273089365922125 7.634980553056639
21.403239804026544 -0.23603665694975667 10.917618841258651
19.237595061816474 0.14998098536062354 9.75963140166957
20.244518927755703 11.056139985679277 8.332261512512396
18.860431901874872 11.017148193744397 6.753461638241763
15.017532798521673 0.62690421215092 10.49256592062698
14.580915347357752 16.823796334030554 9.221257073607745
13.52829154115062 4.742122817442751 7.9731035117108675
12.308979421260014 9.390068838504074 11.889527061852384
13.19843669316111 10.198814593324173 11.007952351169742
14.389602308578464 13.06087799203921 9.180693477742793
14.67522693525286 14.403194673472628 8.635288870342613
13.761144938255953 7.4452548671449525 9.330059015748958
17.87045139971216 9.857000578713444 8.85657528189751
17.449889934843817 11.497693210912729 6.609675687012068
16.301373899603668 13.700592224618854 6.863937456415918
15.881477967846026 14.649386395895805 7.847953380314593
15.984857444374391 16.931202161650326 8.719540630667346
18.250720380837013 18.112446696484618 8.706317010007108
21.113843823058193 0.7884045182673024 11.887685798216143
18.822662897842783 1.0917628552104885 10.8137827313485
16.44180138596087 0.5903404872220287 10.199526023126655
13.771127934916416 5.934473883344371 7.235705323332272
14.526979434844966 9.669836317942973 10.668880862763512
13.914273014808963 7.234486940679507 7.810514353044461
14.798406021824478 8.530877109791694 9.705621001673315
16.55302860708621 9.8567444148997 8.247284405906719
16.397793009015988 10.787039899341288 7.216120973746854
16.84128763565712 18.055102597036516 9.097725022376647
19.84414530057852 1.5138659280146696 11.771965168472107
17.412786463922426 1.2382647700321643 11.048794926373517
14.96379099983284 8.111591838938697 7.338592903490426
15.628381271956975 8.771323443820899 8.455960951346789
