N=96, ave_E=-6.4857865624999995 
1
17.02963059868309 0 0
0 14.748092715524082 0
0 0 20
C
96
C
6.447469233553215 14.710131124874325 10.26329967591133
5.712879088048421 1.1508688898651933 10.676088327465322
5.572742257851857 13.810394232578346 9.153915183987966
7.95947904551849 14.81578646108834 9.375780089675036
6.301985099348665 2.4169911746836643 10.169216963202405
4.1299068053784325 1.1531341969062978 10.237455412573183
5.09010549705458 12.427524571014514 9.461347987084611
6.987853471710626 13.99766551388007 8.36131779929292
4.471436047035023 0.13481895215432763 9.049278897386902
9.448311530238957 0.7509566581724992 9.372661988297807
5.396008751498724 3.4488709777107376 9.96845920529962
7.279673221649659 2.3432212149206126 9.166447552984884
2.932877040966399 0.6843778684175373 11.078323405127172
4.058143942035582 2.7439858863722644 9.958805083727835
3.662153941724404 12.074263506199566 9.494927540377791
6.0247767724633015 11.250361306646814 9.451993682952942
9.677956098862198 2.2068013573020147 9.425729675198635
10.62555286389532 14.751927219630117 8.97762252919878
5.8519941404090625 4.773721642531697 9.27042424121769
8.520162603349533 3.020188166748599 9.265447271711736
2.345967852013385 14.153080914916265 10.732094225279301
1.986165816724409 1.6410350245490801 11.644798476485477
2.9503664715912468 3.5124647535000775 10.346109252871827
3.1254140445151104 10.66927170556245 9.355572394211102
7.259578257543214 10.997062814257687 10.324762251135446
5.579009161912173 9.983559134754156 8.849540518780518
10.99465307749118 2.8083465629828113 9.549074570063038
11.969991110769556 0.5722820401146533 8.910403459124403
7.279349658668285 5.303502629058753 9.308081311696466
4.83018224522688 5.751461197200082 8.770268787613407
8.566329931902564 4.43610830408792 9.376019943627124
0.9378421926261963 14.014493087668484 10.41656635129948
0.5040821746101991 1.442654005004751 11.553953792129828
2.148338988915668 3.0965537908295833 11.442841448822225
2.6805830636469095 4.768884268121004 9.703660442187704
4.179190556331021 9.585198402415134 8.947161077282825
1.6700447839210548 10.343604322218246 9.741737257082647
7.669055725288549 9.568488813368447 9.920488414880797
8.04237928727288 12.010315776185054 11.020458639184465
6.664341579227444 9.025316558655694 9.025113611713419
12.143523046570136 1.906854647653686 9.427948324255507
11.123703618168 4.30454056897273 9.776516080136297
13.090183181920331 14.601260704448325 8.44466704764563
7.40187785082581 6.69159311544388 9.413017415737645
3.5081039033287165 5.258049007309508 8.60692824623731
5.07419982207541 7.157544356698147 8.834909427702776
9.861773931544386 5.113797912458967 9.792646258414624
0.0017918236723322375 0.34591651464261736 10.763275239051538
0.45561414296328717 12.901661003725899 9.645016150900691
16.825121764823507 2.748764268412094 11.703622658236561
0.8507151965572138 3.804565477823747 11.732165278535764
1.7315728392740968 5.6404228071449 10.319725318141472
4.001350123988974 8.08922561781595 9.247638115768748
0.7207382439758251 9.139673269571869 9.529166692039226
8.577007510287936 8.637662941628145 10.596276924905997
9.181082566884424 12.706366759986928 10.467955060535644
6.414908579848532 7.614558253766808 8.935108416190097
13.468019596013312 2.4392902908695366 9.680934280226786
12.539325720944728 4.8837719103749375 9.880492768369098
13.817961475185651 13.630379012892657 9.220834436622226
8.589064488751804 7.245560974024396 10.113271028876454
9.753141917955386 6.402766467703056 10.3952193495631
15.67286289925541 0.38382796177714357 10.162561016031795
16.106437294297884 12.765713085074198 9.289612557385219
15.455956494319985 2.8423704128775253 11.138466783614774
0.672452429376319 5.09220670472344 11.115380840725717
1.9247229095243603 7.105247619928899 10.311030612378062
3.1991182857462106 7.70084934424534 10.385625191479331
16.53699744472439 9.322800336820531 8.718640224425144
0.7658429235794971 7.94329324039584 10.376510741299757
9.44880538952632 8.96934754680028 11.768623079254077
10.615420233689104 12.23211234253382 10.567974158558897
14.733287090234269 1.6618150871852537 10.459680099188393
13.690511719785109 3.91144490573315 9.854588541542935
12.940390551174314 6.323347988429959 10.141094087319374
12.994936457981897 12.686973018066015 9.994063614685668
15.186036849330858 13.839182509559048 9.500923889180143
10.782259524664404 6.989902786800785 11.165030608809204
15.57926804948505 11.502981386771026 8.808345602508354
14.842123459390452 4.12305054001549 10.709787807734546
16.540795052347892 5.927656660872447 11.361590922550342
15.170267411396479 9.096948044974996 9.455231711306212
16.434410949997922 10.606385838223455 8.091781920627145
16.538802585567847 7.401020619338734 10.964392777882459
10.041930393647855 10.235353321686299 11.880335057441911
10.248823375791254 7.836974240009627 12.18279089103261
11.705980747598172 13.100583278272888 10.471972614233216
10.922243088185578 10.867043628877628 10.915582498631306
11.97148971826224 7.402392191961278 10.468914476344022
14.35320276490226 6.571764862130247 10.580026819651625
13.314633713210974 11.117245021796492 10.082269905568289
14.596300741698462 10.626428496223852 9.541399243596029
15.16764484828428 5.476232290942971 11.104467485905431
15.138336854023946 7.986564144423188 10.538172305011194
12.157265958463274 10.184767363672051 10.411289564353403
12.035725484880473 8.807177519300378 9.837379020480181
