N=143, ave_E=-6.42316006993007 
1
20.618857441008032 0 0
0 19.04688463031742 0
0 0 20
C
143
C
2.6365333009816974 -0.28401190609958915 10.063076279382916
3.7438278021361517 18.62911026283604 11.008291169509569
2.648018004576339 0.8853715757787489 9.179137148693624
1.3810448857414857 17.8694062224712 10.099899816333899
4.689532317525426 0.7570565234012265 11.237189527749038
4.629696393231621 17.39611018629244 11.054349631342578
3.484277624668742 2.0557493050347895 9.36215128896578
1.2787196819189952 16.54871428908962 9.488478091597308
0.043264548568467155 18.428203723755452 10.537368081814662
6.147306157462135 0.3213666562365676 11.579230236115503
4.595572184166752 2.077177050243897 10.412202904954459
5.968210761729539 17.823179433473417 11.556404289708976
3.172066885296999 3.3708033605657954 8.888382218131127
-0.037136624136999564 15.861826488666482 9.24494324863915
19.34673579347016 17.95347917122942 10.065631856079825
7.052865757413766 1.246485270861863 10.747099614827277
6.212688554407571 2.3908030525667034 10.196256674065257
4.773038690161508 3.8173385238389574 10.679841482667594
6.989421533067785 16.907195704716823 11.973950673211526
3.935727508339613 4.428591145395104 9.473841606878622
19.296405162456658 16.515591756717498 9.691646439001943
20.203655508718455 14.785487038207243 8.160972160127798
18.29436992853855 18.87940537376304 9.556549361796915
8.503340521816359 1.4394264027900523 10.969841356478728
6.552239898746091 4.045348779748487 10.680596539418957
6.7737070465199585 15.503021276000561 12.417575555280312
4.202844806487872 5.68124760687719 8.793535473902494
18.141934715477177 15.828875378256033 9.004544795263566
0.29499811717999014 13.505841141204 7.9187151055181
18.732252604013237 14.795791402792245 8.109105569438167
17.193755937194982 0.4043577419477868 10.33907856264959
9.479725897077852 0.48579079249624585 10.43938494800345
9.028461583123951 2.7829593602203087 11.322917509672777
6.75308818907895 5.7542924094344565 10.337916936878262
8.09978824398095 3.8777742887709543 11.445062459527534
6.596261159382643 14.455080730525127 11.357185469926847
6.773356525943461 15.195356948567046 13.814953276894986
4.573118248413494 6.905276600759908 9.430861453339617
16.802678068111383 15.638635094568423 9.590643078185288
20.175469530596597 12.214462363268478 7.858020158966401
17.923642871749227 13.590047418154631 7.829211839837555
15.800993354769773 19.0695504230275 9.979148817404727
17.352294332058893 1.808059807925216 10.867734451179313
10.680176396150783 1.0538965062993344 9.825233402704246
9.39009572378179 18.10943506258246 10.591209436315548
10.534421692900297 3.058339218205438 11.204315518420554
8.10756155323621 6.186447174811729 10.761039124083169
5.639628649549635 6.810613584147231 10.4540795140107
8.75922054265927 5.192028375147487 11.545659251324224
6.076954615873415 13.10749459604554 11.643758547712572
7.045071829301065 14.757792867954763 9.979206898693292
3.9131292405842686 8.234577725994392 9.110659309474052
15.8964380458642 14.680386328817153 8.974342525209135
16.279680749120214 16.604921645633684 10.455705790090558
0.26087803188661 10.943006626656269 8.395155915626795
18.66924137567352 12.23251880989802 7.78687058047278
16.48718893040652 13.539668408307444 8.322496223630456
14.913083496787642 1.0092887024951311 9.504508527241583
15.37857482237584 17.6445577494103 10.021315832903802
16.397414425108373 2.8328050572978496 10.596901402595034
11.397733253955302 0.6065156613485867 8.597511124991506
11.332763234158685 2.211476633772265 10.378573838874619
9.796823305663114 17.158214597259775 9.599239108893087
11.08414105113501 4.308081506339085 11.729138041904914
8.495876495422714 7.566127309893401 10.964846365662034
6.014933092690863 8.084316853145818 11.091057005716433
10.103714379815079 5.401334590350046 12.070597937385713
5.8971787978452666 12.003613350410864 10.579128528293769
7.501614570759865 13.638236036269335 9.241051802305215
7.505490915958775 16.088446321998 9.604059855844081
4.382682481088344 9.446950026483355 9.815475746225122
2.8587839653383225 8.36824876232996 8.108524756552505
14.34357003540956 14.71025184391749 9.250867540072903
20.078375330906887 10.407808215428979 9.483773507223443
1.536117250669563 11.43873989292954 8.985261807459583
0.7404664703072246 9.710920800574927 7.491759553267823
17.960406294566543 11.071115972679783 8.247397117514332
15.762518566784852 12.258270197918208 8.426984461761084
15.057539212019346 2.409507093273675 10.041876609056242
13.88541902307036 0.6562756474452911 8.592458052886244
14.1623302785031 17.291542789671997 9.318125672232586
16.87793689777106 4.204885485412025 10.531153383938072
11.89965810064176 18.221525978631878 8.532460081797339
12.707175033461398 1.510206530764775 8.516836215173026
12.599915737053276 2.5839575096027523 9.629557541524655
8.776024911473689 16.382834970844186 8.968940965372475
11.2209471702561 17.015153446801463 9.190637243829737
12.350963652310545 4.975065312323541 11.27459387758568
9.928804612143008 7.8710107921708925 11.284641940507637
7.404520371070158 8.44575053589072 11.364097143266225
5.278633693472466 9.34577297532711 10.925931902322667
10.712444908045958 6.749225474983717 11.877884221923004
6.122872811394541 10.576849316523045 11.213608524591152
4.571860498109594 12.052716218987822 9.851021494827648
6.951998306812355 12.251375225682033 9.544991185372236
8.937078806945403 13.557477245436788 8.91509961087159
3.917954053225464 10.76969902340501 9.41651537506376
2.374405766334162 9.706254313840498 7.695044063249586
1.6258958797392002 7.455293488229584 8.029476122813879
13.678735596081697 13.398969071543288 9.324224207532037
13.548754318773584 15.95176587789084 9.434636737096419
18.66608669048504 10.292498375877038 9.275029356116452
2.796515015866478 10.861333585361468 8.548955167750144
0.35619694795064605 8.176122837063948 7.787567555935574
16.546323813547332 11.044964600082357 8.514977613938907
14.476231764185007 12.233052122667669 9.118906852450454
13.808139545381463 3.123822407564469 10.297260034881909
13.393391227955586 18.30142765965606 8.5892635820151
16.316299839935443 5.125230950748964 11.467656080779793
18.13484182851747 4.5316347912451205 9.8270339226498
12.031639407121652 15.837579804532089 9.433707436479363
13.708653558228601 4.363355565536267 11.127009323338918
12.108918884810551 6.450913167903686 11.421191049926819
10.64475319906713 9.243415017323784 10.949106336460591
7.477902884702707 9.919769890546357 11.270644349963181
4.082739961894 13.291506548459036 9.291059791760727
8.089891192409265 11.329201259420584 9.345481959147278
9.389559633488325 12.148998220794077 9.043517339891501
12.283704939337976 13.280954574373842 9.662838119873097
17.668917506923012 9.570411932657073 10.172094858021712
19.607069487520327 7.5946404961849865 7.825785043812147
16.319825664557857 10.030260868286828 9.616779658040084
14.062163869054682 11.027841450799704 9.883314691270467
14.890670798749268 5.363659852551277 11.544729950707165
17.20084882415469 6.167438383950672 11.958907619472875
18.27410159167404 5.60506006835592 8.813050786860742
11.462620798322154 14.525192312849326 9.72736643147017
13.19769765198298 7.317241668429044 11.768110586532845
12.18357976760444 9.56353600730553 10.892418998819956
9.802493491459392 10.426664631212994 10.70591998123383
8.421999129211581 10.388170877375122 10.377586456968992
10.347223086193383 11.661378927373319 10.032874009328477
11.74316097266451 11.955024747718923 10.03653313050815
17.912364356728993 8.239091837651776 10.76295580660586
19.02458676481185 6.868973238654523 8.999143235426907
15.037270875154833 10.05026009714866 10.304984846261217
12.655813459575848 10.820858955522043 10.208569907241294
14.547985388079715 6.7742340345033245 11.872076093066383
16.91936018237005 7.561460823158974 11.612394651886817
13.212770036772357 8.80158443455431 11.612162326732548
19.01522580353363 7.52879541601798 10.248123264754891
14.714049665909592 9.118676969879836 11.362703192340636
15.477813383239411 7.8618873344329705 11.615995691777922
