N=109, ave_E=-6.571079357798165 
1
20.416740429455743 0 0
0 14.145132699505066 0
0 0 20
C
109
C
2.485840230988384 0.30040018313938904 9.711347548688906
3.911806632802861 0.140412791352253 9.3578791355074
1.644876734373145 1.2294680584888513 9.003375507318204
1.8582357552090432 13.606698223298405 10.702853478277124
4.662101426844931 1.3716719065435155 9.017811005481
4.570756930163546 13.031542982603831 9.64198814317363
2.3576026843509723 2.3606246156896025 8.40024774144862
0.32762130864934746 1.704644086750055 9.642850822346706
2.5858005921309997 12.386581512037196 11.117284553022635
0.4285535066364049 13.729619426457104 11.082892409989356
5.989352888682989 1.7070204690435717 9.534613342098154
3.8639497932362175 2.4759215923232682 8.481282071772853
3.9537017841641044 12.113071226159567 10.622854362960577
5.834430662304279 12.646668066982997 8.982383647440031
1.6647810146178212 3.7225179919979503 8.747332328749366
20.026556103108415 0.6324897070654794 10.390563617623755
0.5039566123904708 3.3722562160928056 9.683971862929972
1.882180508384709 11.263472120829194 11.780397277393408
20.19966964520977 12.675580718220786 11.837506638651014
7.047082960111804 0.7208232317473486 9.447425233672647
6.407957317708121 3.1017871337455696 9.824646080086165
4.163504208817192 3.8728383171955905 8.907273047437581
4.665204771390208 10.94148646519036 11.101353744293174
6.944693006858082 13.504414768748283 8.786670499041616
2.898380888105967 4.627297259989092 8.945288442997779
18.6271110471118 0.2831261470867535 10.002933109188458
20.193707957004367 4.331154761792255 10.561834189451698
2.4720793479389305 9.90720850733525 11.636272343544913
0.5069497065374291 11.462352686584236 12.221283846779908
18.797488745995608 12.349691005956888 11.614072732824436
8.470946437662047 1.0820121226628607 9.432472128006005
7.825226188099649 3.38699544436569 10.089316050385762
5.477688956780399 4.20868620287994 9.513678994164852
3.92348500832851 9.77001486528275 11.439811539863168
8.294770384496273 13.12723480531598 8.354928328889713
2.8811695759239355 6.057667223695744 8.713227745440445
18.00472713186027 1.0797319272717003 8.94896920746957
17.874794995767214 13.35071375683546 10.769624846273175
0.13871705116504257 5.775995196250499 10.926517431883184
1.6309463923781273 8.711478004847987 11.656401524250008
20.085009230957944 10.31789829013268 12.093377281385234
18.5697195897646 10.59966933350682 11.606021060542396
8.885712519486441 2.398476990793478 9.844487701066907
9.30062151849384 14.211756274519734 8.633918773462362
8.213021755816731 4.7268789941936085 10.4230003545314
6.0047062774859405 5.626990368393913 9.587926914994227
4.408321343306795 8.483812094049453 11.137528757617478
8.790284674719164 11.740700607845096 8.25871084511935
3.847963485479953 6.897506187463458 9.299101927848515
16.734417959079963 13.941329627570598 11.536891702806606
17.30923086913086 12.183245229481813 9.944673509033418
1.5114063771636639 6.142170246442587 11.336002479369732
19.46403407079605 6.760086223287766 10.882463282111463
2.151801940822059 7.463368075974459 11.094509822853443
0.19591597864999288 8.945509225361299 11.920381351211141
18.213447469270598 8.973912651821905 11.686767831142273
17.810196429048418 10.788620016106808 10.226654574739392
10.29657053338312 2.7950074957587034 9.90671562541809
10.720707899064633 13.952801330189896 8.6799858413046
9.551910759699581 4.931078129843663 10.97241196389081
7.419504722285505 5.877118749919261 9.940762696782144
5.255044402397184 6.7885037948810725 8.982441159384901
3.4842800882100584 7.529142943027158 10.560453902774778
7.847174184061315 10.639912236036912 8.254685008978331
10.212800647401064 11.509413543075489 8.102565914792667
15.38372807922889 14.026525761819716 11.073000355471425
15.802434591956168 11.993431693787153 9.693231286054317
18.181944438787948 6.35730356966936 10.376185631405832
19.448476514588805 8.069670898873344 11.616143162839819
16.907776502066472 8.587849545054313 11.012325253631772
16.770392255716665 9.676006313361839 9.908786055433474
11.318673392762534 2.2170656639223254 9.04397894039763
10.591327014963174 3.8753561508161027 10.897243851943486
11.682275123070712 0.8278071138935152 9.008724118191274
11.162383244775048 12.56137291680498 8.568585204088105
10.197835176666272 6.241709545249004 10.806605026825675
8.03568194844648 7.188259390101785 9.757184568751658
6.0374751458752165 7.966864074413342 8.50877278142153
8.268065288014546 9.272969047354842 8.423079983562687
10.692573630752843 10.129881186290858 7.870677753069948
14.728514045366795 1.1720473068084802 11.143970095443109
14.826616483130332 13.02444212598868 10.188351619454838
15.472336732692728 10.562877843355409 9.669766412546661
16.91761737095347 7.103473464700952 10.51605468133382
15.592101332051916 8.5139270815667 11.773610867898544
11.940363138839462 4.58334833269173 11.014625731426644
12.988068590717413 0.5097255148797448 9.592987966142935
12.625222279805126 12.190049038310274 8.912736682200393
11.69842476475041 6.1067649792957255 10.902362415037068
9.530248598103928 7.252322696097844 9.952897717150073
7.39457588222114 8.213088399313627 8.980313217424648
9.783457012910038 9.032798839249946 8.277344715257783
12.164130613946297 9.865579381800606 7.8518713470969
13.67729691413498 1.5249160306701435 10.29060785743673
13.52002676260688 13.280256850859228 9.496080339034112
14.19159460555297 10.031558368896599 9.250216774707564
15.644980689764205 6.408678691633963 10.854627500793555
14.676328856829107 7.437185435347676 11.27918067783649
13.208467303653388 3.934228193111443 10.969248806922867
13.09619564803181 10.830998833674526 8.521540433183048
12.452374155329352 6.930775539572695 10.004543443644867
10.320131451838712 7.888202991471394 8.91566979138885
12.687391254412818 8.491987980749768 8.234555828273237
13.468045741473487 2.9083382989471382 9.97607503093337
13.89932896630531 8.599858762716194 9.141174127230812
15.531892364525449 5.025624196807155 11.248756858999357
13.662290609919328 7.760203685673573 10.314417802613619
14.361176051560028 4.4372998375693395 11.792819857485696
11.76445250329927 7.584620153474616 8.82284551236592
