N=224, ave_E=-6.4429607142857135 
1
33.20218978365284 0 0
0 16.773131558117576 0
0 0 20
C
224
C
3.8220036725656295 1.5479872795592038 10.398893913879668
3.716951944090152 2.976660565092894 10.926797040527859
2.6052662650969522 0.5889532910870267 9.90267315846869
5.155702433985181 0.8685295252108862 10.460095837653405
2.673559849262948 3.8956604431621558 10.588403595708197
4.868138268268964 3.500686741231603 11.754338239061632
1.161309671843847 0.172870603090583 10.466525839196017
3.2640043508425816 16.06909613409715 9.435445864558936
6.179392349394765 1.3567651932308842 11.407819610474487
5.490247698245267 16.443891758763286 9.680721196129728
1.7879578411635757 3.7563931318351056 9.478526874894413
2.4379770318720175 5.271627517400773 11.127763816014127
5.962449241348377 2.6092954377070026 12.192455162351209
5.516510630364135 4.848760097689071 11.559859919677447
-0.02875581893220562 0.7127977079463877 9.781730674908165
0.9583646070102475 15.545506059378951 11.050194615586477
3.246636285366753 14.956148535821374 10.340556263520359
4.5288782930595985 16.061514678632882 8.66361186120795
7.69191810498907 1.2853519083090428 11.186452193730304
6.303269719477574 15.463955093743383 10.34938290200158
1.423457561280678 2.484084010625655 8.916544740070393
0.6852633151637894 4.766202744160016 9.64909727945199
3.4673710834864333 6.327462602721159 11.17505355463204
1.1413352344700014 5.838408405881124 10.657029248535679
7.33625624802658 3.426616592270956 12.252137267578519
6.981192030480197 4.759023843853142 11.686355586388409
4.886167057321487 6.103155514394452 11.102511446319518
0.10426516859950286 1.9736105247859048 9.126688881394749
31.765697042663103 0.10135433114097475 9.862631785226082
2.083228235128579 14.664296046710128 11.193174468070303
32.88275151574432 14.974481568614395 11.225558294021265
3.8871463689211563 13.690079019551543 9.95650980774817
4.7772306726413225 14.763676851191976 8.004185975733666
8.35971374810768 2.534688548536496 11.625855117328406
8.382025619642295 16.844249635923994 10.835607927741766
7.6829203115577 15.566522793221273 10.57484213790924
32.53419492739553 4.36332889726559 9.456255687733197
2.918518965048782 7.611009722074548 10.727583901825938
1.312894269301114 7.451329509641269 10.479853478757061
7.864469885294714 5.825040220029304 11.267704031405092
5.798364019437565 7.190641498965006 10.665446705100543
32.212100484304315 2.94755918183956 9.174855438404837
31.683687633897478 15.583698479936785 10.578817047953759
30.6067746082647 0.920371920230716 9.437959410616504
1.9739166657038585 13.161155088997864 11.377540148664746
32.70664710113182 13.499284648077955 11.289449127531007
4.453210502542653 13.50637968272704 8.697457051145864
3.135757572584244 12.61478710162374 10.591326323682111
9.641152262807761 3.0534647344975143 11.046102796422996
9.786909875957997 16.63552478681478 11.096081444776907
8.640803486816084 14.40676138476679 10.946028590596207
31.502934912715272 5.237007773864819 9.822356593745557
3.8229333338795715 8.56519963015274 10.009060456719133
0.03977290314183774 8.406274208639577 10.712970261956375
7.216562353856512 7.074772706161529 10.91060512755238
9.34518794307628 5.754911756984814 11.286234126759702
5.326826520130127 8.735195318494263 10.350025902155839
30.825079006092217 2.4486088373802364 9.294161194299974
30.76704157835039 14.43190430897241 10.236857875005917
29.438024325690336 0.29837891460050936 8.89485809850396
0.6263526698306542 12.493987008142179 11.306751677136571
31.4124921477446 13.222527977369015 10.770781821280377
4.892774293088434 12.185428479999048 8.319197596762024
2.9397484451964497 11.45370061577617 9.773020945545902
10.509356323460498 2.1516069968806484 10.225342326788706
10.044592070868926 4.493974818971768 10.824852288797768
10.850243205969264 0.7533148845381766 10.54257522107724
9.911783311734316 15.156637777335554 11.291261218874833
8.99769382480057 12.978998880276706 10.29811825333914
30.327776607512664 4.619924263841673 10.378727090859666
31.686310606890387 6.638553873729565 9.699017473246421
3.247084514928832 9.42398396592836 8.902398736676655
33.06629322086835 9.886100513486056 11.304881131233262
32.0236448550923 7.529945177254166 10.814798104567512
7.806930490399644 8.296242465618326 11.121099996233603
10.089946262113397 7.120949137341027 11.278927306824915
6.898485375729119 9.450418421263953 10.999280694280905
5.447350469044786 10.030819092569496 9.254353639295278
29.77486054104549 3.486127663039157 9.652721462139642
29.34864403079274 14.404530558269562 9.93073134701826
28.754391238044924 0.7612167068152058 7.570277780726521
28.74917849424889 15.549950939241851 9.238512453676666
0.5847436855937804 11.048948178147233 10.665622068778983
30.66504445133501 12.2195282564567 11.376312602915704
4.101300493025717 10.821554833613833 8.875860366673525
6.35068244648863 11.990189228662558 8.269745039443414
1.6158277286681844 10.831870309522076 9.629456547467292
11.421221263678742 3.0423609214060403 9.376523668604847
11.22197492278704 4.442917406508857 9.858189238705734
12.155155668846387 0.2858460307002839 10.16793994938105
10.97355613882575 14.357280646670343 10.89149048660299
8.666734397037118 11.47381160051435 10.759090909384728
10.579213730765305 13.001994843642885 10.421165101040884
1.7271911934215343 9.618166509976687 8.906139828483266
31.771275010546752 10.097592929302364 12.151303152478516
31.079075757937158 7.79668828842291 11.757903967189804
9.233595383213423 8.37710573286001 11.259812665875526
11.460466252003018 7.641603914036554 11.991780659662336
7.461793727598572 10.719674832529828 10.359729359029231
6.7767993501720305 10.813520503597495 9.043741861495093
28.86097026725045 3.9568656002177267 8.55459410778099
28.62928538694012 13.033176095209427 10.136082214465397
28.042735502222108 2.028341253060042 6.986667458895543
27.7492613467244 16.508417995867365 7.23574233683242
27.664330145257814 15.411086183072197 8.24642167021159
31.27158205430278 11.433254168406824 12.367000476953304
29.383373521306442 11.919507252276652 10.814330468091683
12.73353781487762 2.492084794378877 8.989671393977702
12.395971151347222 5.2192785738078875 10.094637931795312
13.15474079447304 1.182088123871492 9.42515786209076
12.928036242630258 15.952254499663303 10.775633549717071
12.345736238204555 14.655943027194185 11.084916623916563
9.927653958450902 10.841397448247086 11.166986825424043
11.346184314767685 11.649610792374983 10.971514778528729
30.696287711921425 9.122453379908082 12.106526959918163
9.9621842358259 9.531650697399918 11.791398429770844
12.810865714883747 6.968800060977342 11.870604357863893
11.310027130093289 9.115509303443021 12.142827241354162
27.732925869350844 3.203097841127481 7.8535485759581825
28.75618415629324 5.434779768066583 8.102681908454539
27.451703321883304 12.609587430840724 9.346068843116672
27.05380827951601 1.6658520750180958 5.880122647972023
26.621847790430685 0.27797104543374773 6.420593504908041
26.430603177276843 14.803244668537575 8.507830460198377
28.91787882053963 10.505599354453572 10.743074360087675
12.871824935326535 5.54368771127344 11.38888033320353
14.59332527341915 0.6271205519475233 9.47577951059894
14.254795746385026 16.05574472137689 10.10206166084905
13.2858230397389 13.575887539903878 11.091931171053954
12.935041904674607 12.132022829118 11.23397575058613
12.134503906800955 10.128757407737345 11.504620360970488
29.329021536630602 9.546193002460804 11.792216793603544
14.047713688704384 7.664297961034687 12.297264187495738
26.741110056133564 4.245682152516953 7.403916104451383
27.432512456188352 5.536391399045659 7.426830291766862
28.997730086969316 6.665491523011902 8.97833120943892
26.330365766319996 13.48043164820663 9.19063816946397
27.360397299978256 11.199352848828873 8.940043472980655
25.83166887576953 2.4792701218684754 5.698562786232539
25.257802227548876 0.581804582416957 7.049681474013109
25.190069760390223 15.56556672472246 8.83219481074326
27.96314985331069 10.096569768277316 9.712111294569553
13.497254584281203 4.501908510198758 12.207536438696607
15.66651965379616 1.3813344763372148 10.118896573978788
14.865251207747265 14.815740651548372 9.688554107099815
14.354767539823603 13.60981958504595 10.204766321852357
14.447136031801726 11.150442397205403 10.987531327825774
13.513855679173028 10.057220001641973 11.611826023053624
15.382209302678742 7.06896920264242 12.335610378513476
14.14429885878503 9.08627373513722 12.462573681700267
25.285526056018224 4.22691301830342 7.789073196853657
26.803662981685967 6.759203009027105 8.054398442325496
27.821044481036658 7.630265277103266 8.80700089560813
25.186915552360777 13.53933888623874 10.122637665785398
24.793868029701894 1.9954659152061318 6.664699745289269
24.47589065814385 16.410731277672888 7.892830039927574
24.49816932748868 14.805358083113896 9.916059252589214
27.315441535011193 8.742156168090881 9.73689602778834
14.901209179282962 4.41420180528136 12.4681268648507
17.01522580499792 1.8140309511419739 9.497699970403286
15.326130804134152 1.95725672151674 11.424362250806837
15.855805337752765 14.807874052847614 8.659461587484994
14.954664704834643 12.371476055241688 9.958146535413565
15.766059818767552 10.61504403787029 11.704008863350847
15.687636246498565 5.66834562501337 12.136163421573645
16.46609478816609 8.16378504570387 12.271134999408954
15.603136673499167 9.432051842207816 12.571006889532441
24.431632139162243 2.9654728863436297 7.672280987016087
24.68602731728459 5.431676738728331 8.40150161650742
25.51714453194899 6.62122722883003 8.691845413435953
25.028839926800806 12.672570539841455 11.237366115035869
23.041788474818535 16.446323862839215 8.001789338795056
23.085482556573822 14.95252553940482 10.050387830270264
25.95647590716628 8.59381459259089 10.24737969571201
15.802549025339786 3.277855688482011 11.851781989711895
17.926260690471572 0.8001723048589339 8.920344286436482
17.49117919554659 3.220055477132738 9.855792601767124
16.657472210079064 13.548849251832193 8.507421278282031
16.134736934125232 16.07835490271723 7.966073602953838
16.3060270312191 12.406246756961666 9.380673942327803
17.076517047338545 10.939755091703887 11.275946124291522
16.497271644372937 5.313744850743206 10.997410148377604
17.75832401454586 8.445271739512199 11.47059980735414
23.066789723725627 3.0485334338194274 8.087951359466015
23.25587619454353 5.482331596033846 8.73100996828639
25.058091056000205 7.577010584406243 9.646174551478076
23.76127992743029 12.306714994295795 11.79876370426511
22.32186539373959 15.673501826298946 9.07150777724727
25.354619812958006 9.646093774020954 11.041718704462124
16.873286443672807 3.8919032616931375 10.985310054565602
19.363351070877417 0.8059640671859518 9.22395726836658
17.46720721452279 16.630895402504738 7.8731893079428765
18.562016220448957 3.9166100844782443 9.076827142159793
18.06667275106664 13.44259146341152 7.915861136362011
17.304051653925917 11.63117712079261 10.025895369848868
18.217178277355938 9.902991056965083 11.336446593351525
16.630013999127982 6.151965327228575 9.915708525232343
18.396204484669394 7.792293727954682 10.250536241923836
22.414200683527927 4.294039090799006 8.480415271803075
22.73164682004943 6.6484835676119705 9.31350965348728
23.63129335442729 7.675083084626556 9.885487517982085
23.294822363159753 10.956444357604214 11.834654803784765
20.86282836588675 15.50399255877261 8.959333477608482
23.91082259021586 9.864312215592063 11.082870714334824
19.97134957019567 16.35663792839796 9.693990381131293
20.21375875780612 1.874531636672104 8.723118602756823
18.442289124089104 15.847070191662347 7.165363047220591
19.87901428040733 3.311536136650711 8.724346148505866
18.8682068146338 5.5036334731126555 9.210980356162406
19.036774332165407 12.261930733035621 8.355147150841155
18.910074775950992 14.580832944076935 7.622477702340607
18.522738029934896 11.2536474756825 9.334787113137367
19.30139578474112 10.162790091668766 10.125151211842958
17.914971945945133 6.583068354535312 9.588187628475637
19.373743356279704 8.628602067442426 9.604905632486421
20.97216317684432 4.406922266185138 8.635845945455777
21.286056679058973 6.896440771435623 9.239564635747278
23.057891536863604 8.933537599169004 10.314251711755144
20.248886674597223 14.402366824298564 8.188200928971238
20.379869313293735 5.747397394046778 8.863409545504652
20.354768457817293 13.00685905179474 8.506018368854551
20.80718149580935 10.416114697591015 10.401056732580361
20.816345300189635 8.243608378788952 9.484781512758591
21.70327539588035 9.269671155593679 9.923015345167126
