N=218, ave_E=-6.595010550458715 
1
32.35089431849545 0 0
0 16.343072850394886 0
0 0 20
C
218
C
3.885957074643355 1.6789565600667675 11.075211589691126
4.747073179613067 2.539648148659964 10.199971813296198
4.371964559990112 0.33587793029946056 11.49594408323114
2.4198695406494823 1.9905699301052469 11.225460989712591
6.195907981666886 2.231613911575721 10.106051699332816
4.110828141051217 3.311482450165563 9.145150399953696
3.42634791906049 15.62646179205077 11.828850733392422
5.801130018298285 16.339330286712144 11.266753944608556
1.8068847951026308 2.5241549155977894 10.0087711931779
1.7401934264650523 1.0746305837412904 12.035714198471258
6.668036933351008 1.0420228847901827 10.806323258568561
7.01095641312706 2.947391473204466 9.161952360911364
4.932540856741001 4.228034661761409 8.370152831306214
2.6504343644574 3.1712425420363246 9.005665646105111
2.0031382603963515 16.045024230822236 11.82378166720519
3.891974340986595 14.209778865087141 12.056560021218736
6.306903900073642 14.950643043541241 11.489906768446353
0.275840870933481 2.3865298991246138 9.561668164304326
8.434460464929497 2.5479340865951143 8.948595934648893
6.370279302043576 3.906664477231244 8.257266435990616
4.500947575637953 5.585000000529696 8.195640260545876
1.8300092143614912 3.6473162541683277 7.911886465660761
1.1375512618318235 15.347191363183224 11.030558242603632
3.138486426325086 12.927060106278198 11.859151218916079
5.377850917035091 13.907824251103245 11.834261534378793
7.724099527483974 14.711707318468468 11.341764733019577
31.887047195756864 1.0340817856921758 9.417171300068372
0.3561251148368616 3.4642248090253536 8.315816998243104
9.47700038523733 2.3010719711898995 10.020561043748195
3.2412361017700593 5.926635595394351 7.601021710043948
5.165531997622805 6.619957774926653 8.990572359143137
2.0962441342449813 4.947178896397335 7.2904986892262755
0.8797793359020519 13.93869631571764 11.281961143170246
32.344812350363576 16.069473467806425 10.235626144006364
1.8563719581416334 12.827759595639197 11.225290122313023
4.096529045762441 11.774432207358398 11.797923734070341
5.507060388943161 12.385957307274474 11.68822686354671
8.37286436214708 13.62577549985113 12.058724341613281
8.5840186493639 15.779857873824579 10.821188722331112
30.58579717358402 0.754644657481554 8.559587821628952
32.11431222834429 4.957932638332895 8.226282480868676
9.991314903112771 3.448715232890329 10.818340932338288
10.7406910191064 1.556643368547127 9.79638301551299
2.625750632092388 7.276148492942859 7.891951935710985
4.529028151906408 7.8848135551101155 9.365113698999522
0.8192119915589647 5.774236441064419 7.419161841102124
31.891511619172814 13.703323380526253 10.957370039788014
31.339055396895866 14.944007755963982 10.353866384508475
1.4774362277208004 11.52660585065501 10.57889874974153
3.7093535425586883 10.492285456099218 11.181092421624374
6.797958124934086 11.673039783394549 11.247787663256346
8.1432377142744 12.260066617107881 11.680537830566081
9.662241606105036 13.9163063059126 12.714399509561382
9.940556349927054 15.990797915104626 11.334645258037519
30.05656889342775 1.7164148830398727 7.514961496460767
29.683433678358224 15.913773012760714 8.840778605520523
30.662824652956356 5.206249287221795 8.075235699649223
11.397220068405947 3.9855524898801002 10.585961268923736
10.98173753267351 0.31537391110135515 10.526157679074405
11.8059089163315 2.611786472221607 9.864331284741802
3.178297436873426 8.21361983778721 8.87723031742869
1.2390004313251934 7.1553731845784405 7.688107128024548
5.20736170397662 8.770738848184322 10.297935789049383
31.44096071399913 12.402676270800427 10.42990237731691
30.062295001722127 14.920784249443571 9.750704464028072
2.4772923780648117 10.436931468354931 10.404272267381486
0.13189589017227868 11.368633708483094 10.081617661194375
4.48059886311162 9.327171449521716 11.360958837571221
7.131463494463455 10.14687461140612 11.094063959443634
9.162970254087696 11.243037193627806 11.86285334590676
10.714292689342507 12.815485947928552 12.93208457661295
10.317411917843206 15.178138617618739 12.516307237660456
30.650013698806234 2.9603678730476792 7.177441426511109
28.702975124247583 1.5467901299256241 7.004409706547044
28.510260846792306 15.634960189932976 7.963317552931187
29.956960489821103 4.189121805304619 7.367616842231985
29.89963470508873 6.292099390474881 8.731480425595887
11.178657426390192 5.1402723021247505 9.730257331879585
12.37117609275857 4.272602221424436 11.709642244292752
12.424069804969312 -0.05627867880616282 10.7532404531023
13.187389156414211 2.1688238256845036 9.797180396710981
2.1617061688984567 9.27350079828102 9.480449193708946
0.3463907307364263 8.199924342738578 8.059572854688682
6.5448770786804955 9.275412937804516 10.0560445070588
30.000407740890843 12.393295346984301 10.066011772033693
29.343781638908343 13.653019402292738 9.827537838034498
32.25193293277517 10.400764248137007 9.12105809661439
8.581948192127516 9.964110027720157 11.428223637201754
10.542153580673794 11.521130921250126 12.265359983492687
12.02540973428249 13.481662283456348 13.127101235321629
11.717914483785192 14.989294410832427 12.88988032891928
28.050554638526485 0.2747352261515632 6.997973701163261
27.809152265121874 2.8074293973136837 6.9087239627881125
27.29535536155553 14.713227224243555 8.206689685718036
28.41556977912207 4.1532651034708525 7.3339559645167895
28.527536224358386 5.974994747958669 9.121570698813098
30.260541282105866 7.710400281650701 8.582085362572272
10.354453691837882 6.228524837086845 10.140680825645568
13.769931710407358 3.8569161634746423 11.479142122273476
12.414364536673762 5.489752571957595 12.600430954048512
12.795361019062682 15.618862263175338 12.051889645630503
13.507663010167317 0.6987072220365074 9.823209197245404
14.178135294918134 3.032048590569511 10.401367521588803
0.799293545927067 9.257860477563192 8.956284967629522
31.339767116570872 8.07785793161898 7.686398454028851
7.468786269522407 8.586339957213315 9.190088526040476
29.25303738034496 11.182992743975458 9.885120151689428
31.041750678108894 10.370970826330737 8.4365632939389
9.33083904470637 8.966774007024808 10.753069585702725
11.549042815442647 10.440412542872064 12.429620510278852
13.347849592233949 13.230256793798723 12.49403751991656
26.606766575986352 0.0408568649723447 6.644676874653349
26.339580539809898 2.581339327501321 6.73950828141443
26.075856049325523 15.114711151886356 7.287764810833163
27.758555466407746 5.189840842079999 8.240464475032947
27.632354627671297 6.9757301278069 9.749565348030941
29.33242647500255 8.73007728293254 9.140081333766467
9.49401695564886 6.986369468232506 9.26373237525494
10.300945312635092 6.484702504016786 11.615949953528798
14.707234171497127 4.7586942372137315 12.153726615773934
11.446555182241653 6.658756229873491 12.459522305203517
13.891732827516494 5.7693335192093 12.869205373571369
13.789212843421181 14.58011289587709 12.069887678385157
15.031034272730949 0.3466610897661512 9.573401059074769
15.556865708983773 2.7424983688790654 10.294689308457563
8.863692130747294 8.236843344307621 9.608656699185943
29.76738424911472 10.109220171558812 9.039326523820304
27.834515366267574 11.250636722503241 10.254991115957576
11.089304256282507 9.101473613457761 12.696002786207732
13.03990142921619 10.648639634058945 12.082417954353588
13.752526929264008 11.947783181082535 11.80737839684652
25.74768857735871 1.1906664009790944 6.7530068059804265
25.274394993479117 3.430182188277981 7.337202445108609
24.582991680104232 14.937225380731068 7.681785034240473
26.324213865008613 5.564734590195207 8.307900142063051
25.98650287921784 6.788389483722823 9.400938897109263
28.00574864989537 8.36544698456738 9.567990258088397
16.170950384937452 4.892086397818654 11.689195112144265
11.93058926303498 8.015525451767573 12.804389673334665
14.285507913161219 7.160374164870661 13.088257379819492
15.058920743633491 14.775772164042017 11.488710696649367
15.585658004927234 15.32437643348407 9.251600789885508
15.9544905510524 1.491253099765412 9.626825599340169
16.573201404893624 3.766440912174856 10.746975315118082
26.765221256358345 10.553392205486844 9.537575860965024
13.878760118894778 9.41756498545725 12.13162776542961
15.107220628851005 11.835620672110275 11.016547115838925
24.422822402333363 1.1163936721031897 7.449519282425641
24.013389483838484 2.4910111638571886 7.831692699462799
25.531164041685017 4.37786795365383 8.416116161790413
23.810614078250154 16.140418747049992 7.913025581657891
23.850243923790313 13.628047186977335 7.654844940908347
25.044833047395073 6.278616355373306 10.484295166179876
25.629704865779154 8.318280876321138 9.08865024649604
26.828629009222592 9.171421965257453 9.172375272285105
17.032519402427624 6.0606651358404395 12.045168861247436
13.373568553217153 8.2504244378463 12.7793291213978
15.268198678979838 14.272912155508216 10.199345299497768
16.871606054087426 15.18395675155348 8.52262350752208
17.355510731303482 1.2682780196383345 9.32359292090413
17.97528916465722 3.491713857559718 10.389349847819076
15.109096980721478 9.353712599830757 11.359421030975096
15.834242276870555 10.545187982915946 11.063763473919973
15.62379970932874 12.891922499649848 10.058892297051628
24.148972081927297 2.732806926678781 9.341192263059789
22.705184019387165 2.8048962210218726 7.307300650183944
25.052500209348555 3.906958652542551 9.630983372729695
22.29762745276276 16.071549038058425 8.283921750323461
22.31005019618106 13.541837477691502 7.9709496301119565
24.468275408850847 12.321500227952516 7.772686490811459
24.792948984231266 4.835473993464886 10.694291200250817
23.771016583604315 6.9803388743507115 10.950934034404234
24.20975941235175 8.841308236752326 9.225970679950077
18.509208324489666 5.955628206630951 12.441524272448863
16.828061750334733 7.548489458921838 11.672336195386741
17.807485075827184 0.006012698217024531 8.632605157044996
17.545798691684876 13.837745154720752 8.517554441334852
18.32445236703674 2.173841149049575 9.95876400090389
18.97360541243167 4.509086485569649 10.524278137679143
15.678149211783813 8.071140928677467 11.011478049651696
17.315298569665593 10.50856315665821 10.596839826696332
16.91971183393903 12.670261402579943 9.357481621818753
23.100576649747815 2.482447393683582 10.279539065695737
21.573743841492103 1.975599675374285 7.592022693666621
21.598556977434388 0.9843890383832652 8.664899095563634
21.487269900978763 14.80741235308038 8.138741416489225
22.04008198309322 11.942291908604803 8.364343339720847
23.51030072629156 11.313410465321608 8.212385265703688
23.497780930190302 4.6785314648825445 11.381690748718992
22.836496299425935 6.002908716387145 11.585421644805713
23.323636066073842 8.170359723952215 10.283753794885119
23.788680171902215 10.341259119888718 9.314935639325942
19.251823103570732 4.918790978856199 11.847418324145643
19.08651003360322 7.3108938658227975 12.286490585239452
18.075318129890007 8.280838896420885 11.838191484568892
19.31312804830428 16.141105156109706 8.502916800771729
18.971987867715743 13.695968997743577 8.054959434900304
19.68943365101702 1.7186375409475263 9.99265270181851
20.275437750702245 4.192128930709091 9.961440923497147
18.403776759905693 9.490651207244214 11.128920908955813
17.741845111254957 11.47612209862014 9.620047859157246
21.958234220467425 1.5842141324457433 10.063562672639861
22.637700053838785 3.6180948399118216 10.998150392485275
20.149851578957847 0.7815273780131684 9.079309495319574
19.882536139204117 14.875089017753867 8.093974157802009
21.58344910978765 11.273615082930897 9.624433455746196
21.36550113476395 6.142576616966619 11.8969698700208
22.285884078125147 9.098777006437448 10.841863677679026
22.644558443434303 10.447440064197734 10.28415248548411
20.679241613585706 4.863273560383408 12.025177375497798
20.515869597277305 7.404719447056915 11.830901142187258
19.457671844119318 12.415816101372146 8.075691346048075
20.75888951539784 2.2100410554131993 10.928322581861195
21.21843396919207 3.7109725229206156 11.142704212521092
19.840868187321895 9.667434226266938 10.697936371441628
19.125169352313822 11.501519233829654 9.124931091004637
20.143607856354375 10.826583011254044 9.815804943264059
20.93109332585519 8.70034923341767 11.10961289280446
