N=134, ave_E=-5.767589104477612 
1
21.299999999999997 0 0
0 17.21658502723464 0
0 0 10
C
134
C
2.8640405999999996 0.585773645649626 5.0
4.2291362999999995 0.5189853473534746 5.0
2.1009446699999996 1.6942669159451336 5.0
2.1120206699999997 16.707387308469148 5.0
4.859403299999999 1.8035577976980193 5.0
4.327968299999999 16.198137939948577 5.0
0.5955245699999999 1.454994260553632 5.0
2.639283 2.965298522165758 5.0
2.7429927 15.400321389786521 5.0
0.7807621499999999 17.133136239607634 5.0
6.238386599999998 1.8643667760142117 5.0
4.054731899999999 3.0228535659118037 5.0
4.757142 14.775342136712876 5.0
21.64719 2.9002198307628113 5.0
20.416965899999997 1.204474010163838 5.0
1.4069991899999998 3.7340879099718935 5.0
1.5171265799999998 14.46065739558508 5.0
3.569177099999999 13.823626532992373 5.0
-0.24785531999999996 16.204990140789416 5.0
6.975877799999999 0.6617297754727797 5.0
6.8728283999999995 3.0987787058819083 5.0
4.6500455999999994 4.252066087101275 5.0
6.150928799999999 14.27700808309957 5.0
20.315450099999996 3.3101811534313224 5.0
18.988715699999997 1.473758616574815 5.0
1.2467422499999998 5.0794262971700626 5.0
2.1757310999999997 13.139112328894551 5.0
21.455916 14.890142325674477 5.0
4.368523499999999 12.637730939731425 5.0
19.608183599999997 16.150964496973952 5.0
8.363466299999999 0.645690804861408 5.0
6.330871199999999 16.670784848701246 5.0
8.2817169 3.10287625311839 5.0
6.079382099999998 4.330384332390166 5.0
3.8291009999999996 5.439097974974022 5.0
5.729273999999999 12.863164904078033 5.0
6.983993099999998 15.44622080546913 5.0
19.1258238 4.108772449919601 5.0
18.6948822 17.221577836892536 5.0
18.086660699999996 2.898963020055823 5.0
2.4055367999999997 5.845960312337631 5.0
21.120717899999995 5.7532490019659726 5.0
1.8909096299999997 11.614600941317951 5.0
20.364248399999997 14.074282794403882 5.0
3.7045385999999993 11.345557367097355 5.0
18.840126899999998 14.66797951248304 5.0
9.068368499999998 16.603932849040497 5.0
9.039954299999998 1.853830225977544 5.0
8.936116799999999 4.304060173883523 5.0
6.703940699999999 5.613863529585481 5.0
4.461199799999999 6.702209952082119 5.0
6.575757299999999 11.796029314334948 5.0
8.3699628 15.40923958083063 5.0
19.581814199999997 5.4908338129808625 5.0
17.468683799999997 16.71098557473984 5.0
16.920059699999996 1.8507828904277237 5.0
17.044472999999996 4.369620929667233 5.0
2.3104961999999998 7.208584150903144 5.0
-0.15304901999999998 7.175407791555663 5.0
2.09963472 9.993556161493647 5.0
0.27083376 11.77423311769047 5.0
20.4745185 12.728221310634568 5.0
3.7539759 9.503124520407841 5.0
18.207964199999996 13.14030027326143 5.0
17.441973599999997 15.305406356531376 5.0
10.448203799999998 16.55440073391714 5.0
10.454487299999998 1.8097557683078236 5.0
10.375379099999998 4.320639745264751 5.0
8.206613099999998 5.611504857436749 5.0
5.815411199999999 6.794043216617387 5.0
3.5575685999999997 7.912966294122394 5.0
6.0471338999999995 10.409216173806172 5.0
7.748109299999999 10.657341597218679 5.0
9.029730299999999 14.185811832210307 5.0
18.7317312 6.76047087581428 5.0
16.5600471 0.44619534751682927 5.0
15.666703799999999 2.4401926788351016 5.0
15.7399119 3.7740131706500506 5.0
16.4279871 5.808393723808205 5.0
1.1174320799999997 7.825006761218253 5.0
19.6344039 7.916719509658331 5.0
1.0484158199999998 9.121846028394701 5.0
20.624023199999996 10.636199630805233 5.0
19.221269099999997 12.196332132803182 5.0
5.335522199999999 9.224663474177346 5.0
16.9209969 12.521863322498135 5.0
16.284041699999996 14.521225341710894 5.0
11.151295499999998 15.277773737562665 5.0
11.142519899999998 0.5415993317867472 5.0
11.190849599999998 3.0025207789946395 5.0
10.546375499999998 5.781966265791399 5.0
9.3787521 6.599564672149746 5.0
6.2600487 8.063955744811242 5.0
8.321377499999999 9.382522342292061 5.0
8.675191799999999 11.793997757301735 5.0
10.453166699999999 14.093375987199085 5.0
8.2239726 13.093522811742433 5.0
17.246354399999998 6.925009778919562 5.0
15.222151499999999 0.25016042376272474 5.0
14.613738299999998 1.498126971022363 5.0
14.663793299999998 4.548432381760092 5.0
14.873832599999998 5.96568444461702 5.0
18.817378499999997 9.208359368156557 5.0
-0.22943720999999997 9.433345701292458 5.0
19.158689699999996 10.726569485613187 5.0
15.518391899999997 12.569863161554066 5.0
14.919158999999999 14.938038865220244 5.0
12.537925499999998 15.2572515682102 5.0
12.5153901 0.4789326839461159 5.0
12.654351299999998 2.857419400385106 5.0
12.0755238 6.3241853946391275 5.0
10.104421799999997 7.840019623362001 5.0
7.626039 8.189258050639456 5.0
9.661104899999998 9.23216990524922 5.0
10.063440599999998 11.631025563433933 5.0
11.214577799999999 12.804697381325546 5.0
16.5790041 8.228615164011714 5.0
14.516993699999997 16.311991216733677 5.0
13.255160399999998 1.6320651159002375 5.0
13.412524799999998 4.024876031081886 5.0
13.584287999999997 6.8665078229970185 5.0
14.864588399999999 11.403060761088318 5.0
13.486499699999998 14.060612825892258 5.0
13.169768699999999 16.45640393194212 5.0
12.461096399999999 4.939696493089026 5.0
11.634933299999998 8.369825594405093 5.0
11.0258598 9.719657510295372 5.0
11.4673875 11.032749233737528 5.0
12.7826838 12.74671192295382 5.0
13.038624599999997 8.22024790368848 5.0
15.697610099999999 10.262754684979488 5.0
13.511378099999998 11.468259968586455 5.0
13.803677999999998 9.370815064473543 5.0
17.0879037 10.381669637762597 5.0
