N=247, ave_E=-6.627737246963562 
1
29.755135781503746 0 0
0 22.087460125575 0
0 0 20
C
247
C
3.0654038433462976 0.6686603066195697 11.42657017183436
4.200830069632699 0.7489968165883111 10.53337727299279
2.563869127694739 1.8721596251958876 12.014009592937214
2.365652315172674 21.50494753968321 11.627791522662601
4.893529630626106 2.0528991026574555 10.400766355978647
4.513378015881615 21.750648446120106 9.642818631644964
2.9875048978703207 3.1971819406371065 11.611746499746214
2.7128679701206195 20.369144077645768 10.766628800165307
1.1467986391820921 21.373858463837923 12.50326305290995
5.997623698934584 2.169677713087383 9.413638229690036
4.276854441554441 3.2961779369199338 10.927079029329153
3.7636081044592826 20.54478356056434 9.81584145339254
5.558289119120682 21.88187004672615 8.638448092670092
2.15670282517422 4.311008379849603 11.783811409677892
1.9157040784255088 19.127784643668203 10.842722920041147
29.859278756739013 0.30219621194609203 12.542956523781456
0.7979285986846952 20.03264162263263 12.951266435310345
6.142055128018003 1.140715713169371 8.31886476308927
6.770662126538052 3.426670651341831 9.381667922834257
4.9006708632136675 4.629421205019892 10.674369918396103
6.128010703929133 20.719495370157638 7.9222892713052
0.6928423856451584 4.150984731239812 11.72950978361386
2.8236850223116736 5.6123352680681045 11.848350718274396
0.9891380767302164 18.92367442464776 12.0260433601245
1.2641975274080153 18.60497446249584 9.580494494122739
28.445165928723043 0.02555695836210032 12.820870689370473
7.566463233014368 0.8596483655794042 8.000119606347365
5.548440169177003 1.6161814235625613 7.022331120263814
8.115683529269365 3.5043964235237293 8.85080516835821
6.066030756096261 4.722343149768186 9.728132652748872
4.215677882387669 5.7899626223979785 11.344010147201178
5.52481459136649 19.37156394107417 7.857390745777735
29.858386102665566 2.8973667568925516 11.320900524642504
29.663043636259992 5.395723546616591 11.748009455558499
2.0127623558311956 6.7599555212727305 12.082620026751307
29.628854985247045 18.172943742439593 11.554152051815013
1.9196644869980268 17.76295630758867 8.60132900980383
29.729338078781183 17.960506550951813 10.067413044044208
27.515050139329016 21.25392355535605 12.02712101091739
8.687279687632053 1.1151318081059176 8.978506787315851
8.00416128036029 21.87427196044295 7.098784457070618
8.348428201352288 4.56324717448367 7.941746855065741
9.168509498626312 2.5268937882062823 9.179069573770658
6.559936254933442 5.9826094496132445 8.978686395781335
4.623472018273178 7.148496032341721 11.172723540619923
6.180469008311925 18.137670068619048 8.370412392682582
28.196204707639204 5.389207745879546 11.740465900008253
0.5788683135476865 6.689717398073402 11.853978450192823
2.6558452279089453 8.114491100933742 12.20529260867545
28.78047655384481 17.411147242708513 12.398072361626042
1.1569510915107413 16.489305006907514 8.592647933972202
3.306033626411318 17.838561683598513 8.256480756078552
0.002261470658260895 16.590266787141516 9.460575908669313
26.07499083291158 21.25736919913564 12.137699956165761
9.837970298574366 0.25616815379040625 8.571514004533832
9.387090726077238 21.434135142520617 7.435370721383727
7.790370629770185 5.8430608765398615 8.186134107098134
10.768770456091366 2.6096555012968117 8.787463249531587
6.032407452663162 7.374892498628864 9.117703348064335
4.821760243121119 7.657545725855847 9.83919055390519
4.088504432057523 8.055296707797202 12.166137963200399
5.597803939438518 16.81357100901108 8.402023482607397
27.504516821262367 4.190786334386098 11.35795973802027
27.468810658324564 6.622726131512534 11.861641744720053
29.60070662679774 7.887785410204841 11.59594095478381
2.091009436395816 9.15423619888506 11.429503776770567
27.800758953103017 16.522590809316753 11.920673060375112
1.9584354289213262 15.280325789474041 8.537508135069256
4.148550296064596 16.666203475053244 8.213075376920422
29.16155057779853 15.404391052999395 10.117942892333126
25.27320894414318 0.33169401494379747 11.84374076766036
25.401066762596304 19.978151858502837 12.432257839556101
11.074742517332568 1.0947737961081752 8.566425098011845
9.646138938191012 20.0035966125675 7.543973973511793
8.61125531571031 6.998632615389694 7.958210964401584
11.878101428297388 3.641471201063048 9.179668268655597
6.735074984143373 8.506013419119686 8.443034082225768
4.056190354598809 8.812852415184175 9.42387591222251
6.459780467892901 15.588777170127695 8.650002903949428
26.039076384023307 4.120923698008904 11.172663671131428
26.000662503729384 6.590765576710826 11.70687911696314
28.176387787208718 7.889618669395264 11.812009938758553
0.6226797754723725 9.158211941707664 11.373645544005687
2.724442717939624 10.56085400952218 11.455846351707915
2.713772526248377 9.17835570534219 9.863317957768263
28.06218757607931 15.391403626445557 11.085314087418723
1.287781448028435 14.06244532560996 8.957253118900493
3.414610116878025 15.399288849710388 8.429443708337637
0.08308437298861947 14.095620690718574 9.814464455157179
23.855079172796714 0.3196121742551079 11.440519762653455
25.806093670854132 18.76736146933907 11.729749261567836
24.205475651759702 19.947074802106155 13.164042597417918
12.41399142372227 0.5785346343231734 8.921930120689048
10.026350063207065 19.35091216585676 8.766928014978156
8.037129970806195 8.299142267583552 7.840986505930388
10.066549251647876 6.851552218413491 7.899239518235024
11.72480296875108 5.151922161750494 8.7575285052846
13.18512552263572 2.9795100210995646 9.56510803557979
6.117388120455137 9.83059840285042 8.350894939433545
4.758143762820264 9.944370909957255 8.938573838490374
5.849710918964729 14.392763291787935 9.370292720020402
7.8884138021702395 15.56898680585518 8.37250782477987
25.291478597513027 2.91344642786397 11.173501843970342
25.310462374141622 5.34266946739496 11.276297755714488
25.264996526667485 7.855493543501251 11.761420220981147
27.472083723260525 9.112468811787599 11.860145007507708
29.597612092676464 10.378477851265306 11.120457477164685
2.775288293963058 10.824070271838657 9.96551517462747
27.338721204687825 14.175025109870017 11.245405099651602
1.9004843264732696 12.785790130351726 8.638807309601056
29.46175014269812 12.864664450460154 10.50936960810671
23.10745163115065 1.6215376326430133 11.252409829805398
23.011580583662642 21.2077607636936 11.532898383399655
25.04245786615762 17.56059099791815 11.583308492711577
22.94775581741132 19.364451778913736 12.722385380797888
13.451314967337053 1.58914858111487 9.163144289831262
12.881147055491878 21.102138529373097 9.244207577252098
10.81399826247925 18.147476900914807 8.721008117303278
9.539972613722606 19.848741429627093 10.008261989412166
8.882294847544028 9.400533466745348 7.590432696583115
10.665549890065328 5.534300271444448 7.847212932733761
10.852025326008013 8.011143875006178 8.19798826581994
12.523043996361482 6.415104006332128 9.373346063933596
14.345724593793275 3.7040228881386765 10.101418913508788
6.827672966695412 10.936627968638586 7.675267761779075
4.1413495532054725 11.141687948444424 9.392384561274678
5.713848968986383 13.012606258381256 8.816200604008696
8.666123786091402 14.284954398915003 8.34568629393457
8.657078224813825 16.811649399980155 8.398970138694207
23.86638612439368 2.8757652208897397 11.027001205625595
23.858501013411587 5.3748508967979225 11.078908052149863
23.78949885353428 7.900662399458051 11.535233293450919
25.98212505413751 9.105533349308168 11.94683602684698
28.196234462774985 10.378831250627316 11.612764281050616
0.37628642260647455 11.560466192425327 10.381129163752625
1.6226695502221036 11.60302872808731 9.52697117140913
25.954958615168994 14.023306346267441 10.912411004648131
3.245660455910647 12.890396341506449 8.075016336453324
21.62302741728299 1.6687186562172542 11.27013119839961
21.563606411127328 21.22342077292263 11.39867099019617
23.667978879002618 17.545549437572635 11.13279059179444
22.775324805557506 18.626686435799282 11.527210781992729
14.734951524951127 0.9026106842696601 9.48829548184202
14.464090523932096 21.52641655092527 9.48464344304389
13.132577952845585 19.492404435421193 8.655870113821837
10.086485192621483 16.845399039052033 8.662814974487137
12.306694404094168 18.170734996427036 8.740166353621351
10.284535376383172 9.349356821634391 7.955636576396344
8.244076940166554 10.680987705145181 7.216906957869224
12.11676737240083 7.829783739915082 8.985631256446634
13.73755937355512 6.123461182834037 10.186433587170225
15.57086255446091 3.025540288001263 10.439681523499729
14.714539501805014 5.079143980636724 9.777824328198868
6.803333265626142 12.425632005544099 8.13326934875796
4.401201153985345 12.362793181486838 8.732083972674666
8.14109441522677 13.045582836348737 7.830569214932435
10.107641094162133 14.321133658600695 8.744177609350448
23.1397061983378 4.125805026696656 10.75956420052302
23.107154079792835 6.626768136715514 11.162366119110462
23.05145246560986 9.119779761089163 11.709094288037413
25.243900135398402 10.354557131949308 11.910375508354146
27.431944045091278 11.592912671349797 11.74938645379386
25.22667191178091 12.836282064198791 11.356283392342437
25.22414272523948 15.102367123242283 10.351553636436602
20.88138065792901 0.45746884788287173 11.4937437379246
20.960261522885776 2.766277681047264 10.588457202407248
20.87462624210661 20.029681902975803 10.919355865313435
23.111885146382093 16.435632478802365 10.332575008584012
21.639839068999542 18.85484989889647 10.704005315200614
15.824554842134011 1.5779899962594295 10.126743707141742
15.41824846303758 20.54723526863828 8.982458173556452
14.672465739809969 19.310050364624445 8.577740431337205
10.8213180258815 15.607176024412299 8.88151821595562
13.07050873960537 16.857657579421726 8.875351658640739
11.001455617902725 10.547005172023445 8.236604085898556
9.030118362106538 11.913931816814905 7.373286061815477
12.982939375000404 9.175771472507495 9.198167940600236
14.264879889874928 7.11390706978507 11.027899247953002
16.752052179579263 3.8541071796919586 10.032209784809758
16.328190270371746 5.36073700977768 9.630964472923157
10.914630131692297 13.076394843223916 8.607615306095695
21.629484281747576 4.107958358915192 10.494941061379667
21.617790513385447 6.62893270780782 10.96814949843602
23.773550100755394 10.378234889203926 11.745674545507232
21.550662927062373 9.05831035955969 11.654074228111455
25.967247486246755 11.62204603125543 11.774890855892288
23.771407730979124 12.793675353616555 11.271089110215517
23.76361188540437 15.149855162512269 10.362689361296482
19.405525923166426 0.4354189364395102 11.289229565229192
19.571767866777687 2.5428630218770727 10.130335876451376
19.50815138647683 20.099964201095382 10.52014611603563
21.845417302113947 16.6039830998795 9.663353866198396
21.043337861987734 17.766865788030895 9.900796257565489
17.28669245930132 1.1749269801578741 9.881338673804947
16.84515599943959 20.493341865931875 9.414476402528955
15.309999279064467 18.02416261103372 8.822546769789056
12.282354703024899 15.608192047578076 9.063521460977292
14.551094540957214 16.791284761744375 8.802071404724117
12.327642019684346 10.476281124701352 8.872418053704532
10.381864425524473 11.849568958008977 7.977788287139113
14.324895998746223 9.252414959143243 9.823923834339226
14.99245247000426 8.10611995354615 10.353529329556906
17.554518436470637 2.831347338577208 9.249715570193544
17.13999963989851 6.608700594332793 10.010417290997953
12.29009103832809 13.048255419023933 9.12728246622337
20.899203984262133 5.404691055427574 10.46632344587955
20.85623756819364 7.932910091241391 11.098006418979445
23.029255134316855 11.609036517241467 11.633718602023503
20.8953953268821 10.297306435303819 11.936658213803003
23.025416721801044 13.949004130405006 10.716278560341877
18.729638013889566 1.5389018180751994 10.67945882491809
18.762309152977657 21.332532825942973 10.75333777371965
18.955449739335396 3.2487561600303243 9.003113147086871
18.840178343317852 18.99590041925839 9.858468529200252
19.597089487327743 17.782238660278296 9.571214723406172
17.540533522653334 21.614545516826315 9.999521044092049
17.506612667862417 19.167453722053732 9.362150469585224
16.7305987266808 17.960749513013194 9.090881817219039
13.024447789415602 14.3175113151401 9.29922763717806
15.270752254968663 15.49066467224989 9.047236960106932
12.996061389880047 11.758922021653618 9.18571508699349
15.078861384313747 10.521737117639786 9.794887132419653
16.461790830030697 7.949100199513437 10.139136691259989
18.695003035839896 6.695725187227559 10.117164588982703
19.592596461824737 5.563809118172216 9.774351897866218
19.446796296495368 8.004628074269133 10.512123604577432
21.541200793883853 11.531686231881702 11.555648789027366
21.62835358658788 13.675848511032022 10.348380553546423
19.246633498093196 4.618775049239365 8.74573421605129
18.91846410555899 16.605021210505402 9.02640237811103
17.45733816300825 16.676893805754023 8.98527203951567
14.48947165475372 14.248355477486925 9.286355697151855
16.683526101874463 15.439819339040817 9.058432554455305
14.430943302671501 11.76989948933603 9.515416360129791
16.48541640784121 10.489688212997576 10.030353830666446
17.210995393873176 9.181933873882532 10.070885474376862
18.750377343529276 9.337584205387458 10.117823153356134
20.905006235739524 12.44164541413514 10.637729791437788
19.597297773278214 15.336670900254383 8.686523291930751
15.175297779381598 12.963792971503734 9.487217831049133
17.43403989169133 14.115278530230336 9.163623245739213
17.3201967421913 11.608749380259834 10.077291509645722
18.77998370363187 11.081146220240223 10.188648758244508
19.862713584449228 11.951988510611269 9.703825640420323
18.8299723317448 14.057873221363968 8.708794741650507
16.6636794263082 12.92867390990407 9.598575079647919
19.536835337370203 12.753056514445625 8.54481221266552
