N=94, ave_E=-7.243940638297873 
1
17.04 0 0
0 14.757072880486835 0
0 0 10
C
94
C
2.4836652 0.614218887431623 10.0
3.9078172799999997 0.6135754790540339 10.0
1.7728756799999998 1.84420615494732 10.0
1.7725008 14.14251458037896 10.0
4.61385264 1.82995082254477 10.0
4.61148408 14.15370044162237 10.0
0.352368456 1.8459327324743373 10.0
2.4831710399999998 3.0702385269310466 10.0
2.48242128 12.913501279673374 10.0
0.352354824 14.144285429124619 10.0
6.027780719999999 1.8509206231079418 10.0
3.9023304 3.0654424782448886 10.0
3.9014272799999996 12.918090729339207 10.0
6.02450904 14.13463430346078 10.0
16.68212592 0.6183287322288387 10.0
16.68134208 3.0770858087475927 10.0
1.77185328 4.303206723168603 10.0
1.77256896 11.683012271679742 10.0
16.68244968 12.914814659159738 10.0
6.75271344 3.0625058207416718 10.0
4.614823919999999 4.29767282083842 10.0
4.614994319999999 11.686834353555787 10.0
6.7509923999999994 12.925661107726896 10.0
15.26145 0.6185397583710296 10.0
15.26243832 3.0781630750678683 10.0
0.35049576 4.305376012882034 10.0
2.48300064 5.531718283396251 10.0
2.48347776 10.452523263686107 10.0
0.352935888 11.683661582886483 10.0
15.262421279999998 12.915611541095284 10.0
8.157525119999999 3.0640700704670034 10.0
6.03826032 4.2979974764417905 10.0
3.90299496 5.529578507828581 10.0
3.90359136 10.453231603184372 10.0
6.03664152 11.687040952576115 10.0
8.15444088 12.926133334059072 10.0
14.55251784 1.8484561919369005 10.0
14.551529519999999 14.146676074931257 10.0
14.55144432 4.308770139644547 10.0
16.68033672 5.536647145738334 10.0
1.77280752 6.763373100147443 10.0
1.77381288 9.222388425441606 10.0
16.68422184 10.453718586589426 10.0
14.552551919999999 11.686140771130404 10.0
8.88344616 1.855938027887307 10.0
8.86945632 4.302690225617785 10.0
6.74458536 5.5310394580437485 10.0
4.6123360799999995 6.759683831927322 10.0
4.614363839999999 9.222270368858561 10.0
6.74438088 10.45416129877584 10.0
8.86686624 11.688988886196338 10.0
8.879578079999998 14.138825312158838 10.0
13.132284959999998 1.8487956046131517 10.0
13.13259168 14.147531985158325 10.0
13.13134776 4.308725868425904 10.0
15.26032536 5.5385212939941555 10.0
0.35143636799999994 6.764730750852448 10.0
2.4822508799999996 7.992342129634387 10.0
0.353501616 9.222713081044976 10.0
15.26334144 10.45528283631476 10.0
13.13219976 11.688192004260792 10.0
10.29498864 1.8364439346121841 10.0
10.292074799999998 4.304165932905834 10.0
8.16187032 5.532515165331797 10.0
6.03260304 6.760465956789987 10.0
3.90314832 7.990999236002262 10.0
6.03313128 9.223185307377152 10.0
8.16030264 10.455622248991011 10.0
10.28997888 11.690095666662375 10.0
10.292415599999998 14.159440942972878 10.0
12.420967199999998 0.6190503530926944 10.0
12.423403919999998 3.076820181435744 10.0
12.4228416 12.919581193700136 10.0
12.420438959999998 5.539406718366985 10.0
14.549910719999998 6.768759431748821 10.0
16.68296088 7.994127735452925 10.0
14.55294384 9.227110688763362 10.0
12.421972559999999 10.45833755040102 10.0
10.99995048 0.6192525249911571 10.0
11.005761119999999 3.073175184434264 10.0
11.00088768 5.537931011078936 10.0
8.871637439999999 6.765321033767668 10.0
6.74231904 7.992371643780147 10.0
8.870563919999999 9.225708766839714 10.0
11.00027424 10.459296760138251 10.0
11.00231904 12.92300483460841 10.0
13.13001864 6.770338438547033 10.0
15.26087064 7.996223239801955 10.0
13.13131368 9.228704452634455 10.0
10.290183359999999 6.767859250303111 10.0
8.160677519999998 7.9944228769105345 10.0
10.28989368 9.228409311176843 10.0
12.41967216 7.999646880710229 10.0
10.999609679999999 7.998849998774682 10.0
