N=138, ave_E=-7.241736231884058 
1
21.299999999999997 0 0
0 17.21658502723464 0
0 0 10
C
138
C
2.4723335999999994 0.6159043911057892 10.0
1.7856428999999998 1.8507656738426965 10.0
1.7856130799999999 16.596202602363267 10.0
0.36140774999999997 1.8486136007142921 10.0
2.4879890999999996 3.0710255708180063 10.0
2.4886493999999995 15.377647147305654 10.0
0.36161435999999997 16.59690848234938 10.0
20.950914299999997 0.613359779838764 10.0
20.948187899999997 3.0762077629112037 10.0
3.8956847999999997 3.06720348894196 10.0
1.7766883799999997 4.30364697584287 10.0
1.7763688799999997 14.144440378389865 10.0
3.8979638999999993 15.38195129356246 10.0
20.948209199999997 15.369469269417717 10.0
19.529160599999997 0.6127571993628108 10.0
19.527158399999998 3.0742278556330715 10.0
0.35704977 4.30495543630494 10.0
4.6225046999999995 1.8531071294064003 10.0
4.6097459999999995 4.300530773952941 10.0
2.4851349 5.533152178977804 10.0
2.4857525999999996 12.915675488411098 10.0
0.35513915999999995 14.142030056486051 10.0
4.611790799999999 14.150276800714096 10.0
4.626296099999999 16.596340335043486 10.0
19.5268815 15.37069164695465 10.0
18.8179323 1.8416064506082077 10.0
18.8175276 16.600265716429693 10.0
18.8152485 4.304559454849314 10.0
20.946547799999998 5.534873837480529 10.0
6.038422199999999 1.8329120751694543 10.0
6.033544499999999 4.298533650089782 10.0
3.903011999999999 5.53230856631147 10.0
1.77591945 6.763742026969455 10.0
1.7758342499999997 11.684465843358469 10.0
3.9054614999999995 12.917328280573713 10.0
20.944183499999998 12.912094438725434 10.0
6.036249599999999 14.152497740182609 10.0
6.041361599999999 16.617843849742503 10.0
18.814524299999995 14.142167789166269 10.0
17.398052999999997 1.8373195209364261 10.0
17.3941125 16.60110932909603 10.0
17.394644999999997 4.303543676332707 10.0
19.5249432 5.534495072609929 10.0
0.35534150999999997 6.763724810384428 10.0
6.746221199999999 0.6168426949897736 10.0
6.746860199999999 3.067341221622178 10.0
6.745198799999999 5.531172271699672 10.0
4.615049699999999 6.7624507830924125 10.0
2.4856886999999994 7.993092280839144 10.0
2.4869879999999998 10.4544957924278 10.0
0.3553287299999999 11.68253758583542 10.0
4.6178612999999995 11.688081326214188 10.0
19.523047499999997 12.911526291419538 10.0
6.747861299999999 12.919979634667909 10.0
6.750694199999999 15.383931200840594 10.0
17.3957952 14.147591013449846 10.0
16.687676699999997 0.6031176334060621 10.0
16.6834167 3.0705779396072983 10.0
16.6876128 15.383276970609558 10.0
16.683267599999997 5.533909708719003 10.0
18.814034399999997 6.764430690370544 10.0
20.944822499999997 7.9933677461995805 10.0
8.169721499999998 0.6177104108751462 10.0
8.166888599999998 3.0726783629806205 10.0
8.164566899999999 5.531843718515735 10.0
6.035610599999999 6.7622269674870585 10.0
3.9057809999999997 7.993316096444499 10.0
1.7753912099999998 9.223113981524897 10.0
3.9076766999999997 10.455959202155116 10.0
20.944481699999997 10.452395369054477 10.0
6.0378471 11.688959372050578 10.0
18.812074799999998 11.681229125373347 10.0
8.168571299999998 12.919256538096764 10.0
8.1710421 15.379368805808376 10.0
16.680647699999998 12.915348373295583 10.0
15.272611199999998 0.6264392194839542 10.0
15.258787499999997 3.072988261511111 10.0
15.2723982 15.361773455910543 10.0
15.262983599999998 5.534374556514739 10.0
17.3935161 6.765394819132069 10.0
19.523494799999998 7.993264446689417 10.0
0.35497514999999996 9.22309676493987 10.0
8.878500299999999 1.8462377119805338 10.0
8.8815888 16.605637290958192 10.0
8.8746663 4.303612542672815 10.0
8.874602399999999 6.763328828928802 10.0
6.746114699999999 7.993643211560016 10.0
4.6174352999999995 9.224715123932429 10.0
19.522515 10.451775571993496 10.0
6.74784 10.457233229447128 10.0
17.3914287 11.682520369250392 10.0
8.878116899999998 11.687685344758561 10.0
8.879288399999998 14.147918128565363 10.0
15.256913099999998 12.915124557690229 10.0
14.546238599999999 1.8411243862274453 10.0
14.552330399999999 4.304215123148769 10.0
14.543895599999997 14.148658441721535 10.0
14.552543399999998 6.765343169376988 10.0
16.68216 7.995433736402848 10.0
18.812138699999995 9.222132636178342 10.0
10.298507399999998 1.8480626699934208 10.0
10.303065599999998 16.605654507543218 10.0
10.294481699999999 4.304611104604395 10.0
10.2937149 6.764327390860381 10.0
8.165525399999998 7.994624556906568 10.0
6.0373146 9.224439658571994 10.0
8.167825799999997 10.457474261637511 10.0
16.681158899999996 10.453652179761464 10.0
10.2970803 11.686308017956383 10.0
10.299252899999999 14.1447158437503 10.0
14.550924599999998 11.685154506759558 10.0
13.138095599999998 1.8426738788798962 10.0
13.133537399999998 4.305007086060021 10.0
13.137201 14.147935345150392 10.0
13.132472399999997 6.765480902057206 10.0
15.2620464 7.995726418348311 10.0
17.391535199999996 9.223131198109924 10.0
11.012802899999997 0.6217666383075626 10.0
11.0056035 3.0752952839047603 10.0
11.0125047 15.37175907522634 10.0
11.003516099999999 5.535183736011018 10.0
11.0040699 7.996242915899128 10.0
8.876753699999998 9.225627602938873 10.0
15.261641699999997 10.454478575842773 10.0
11.005220099999999 10.456183017760468 10.0
11.007584399999999 12.915382806465637 10.0
13.134133799999999 11.685963686255839 10.0
12.437730299999998 0.6241976201134082 10.0
12.425269799999999 3.0744861044084804 10.0
12.422458199999998 5.535648583806753 10.0
12.425994 12.915950953771535 10.0
12.437112599999999 15.368281325050837 10.0
12.423203699999998 7.996156832973992 10.0
14.551755299999998 9.225696469278981 10.0
10.2949077 9.226299049754935 10.0
12.423842699999998 10.45592476898506 10.0
13.125826799999999 16.603261402224433 10.0
13.1330049 9.2258342019592 10.0
