N=224, ave_E=-6.463579017857143 
1
33.2415744221253 0 0
0 16.793027948288444 0
0 0 20
C
224
C
2.2442384139609453 1.383980605330244 10.629424529771054
1.4133386680203857 2.4439733224541587 11.162284626801782
2.0967156308329953 -0.08608022161152915 10.972959814732103
0.15227865518052333 1.996052887989461 11.811373186512682
1.2040729845607803 3.9793094886823264 10.679520986998767
0.7317933159584351 16.265458182265014 11.46280484626941
3.28562048498496 15.844809625188336 10.761922636270512
32.98255607422809 0.5689578627047814 11.779243566164542
32.420208359729 3.056448637784135 11.82143929707713
-0.15494429703343354 4.28304498518302 11.237312264846086
2.2483171551425403 5.104022535518945 10.59530509686947
0.2527021163412523 14.891234326172725 11.42043354366093
3.626157145837538 14.64444398744468 11.507575628721746
4.3672448060044 16.636651272033983 10.235149024697357
31.503871119208696 0.2826837566647187 11.940418382992942
30.999596435225058 2.8142260026580224 11.78263795228511
32.73457392903904 5.633070088001824 11.6855468044571
3.3226682196784183 5.057472262046289 9.55515984650955
1.9027543682373362 6.371577078083704 11.233859354826883
32.03876129323511 14.555625662626182 11.61631303237722
1.1792415284674527 13.671590292344433 11.244393656580378
2.6262306422753556 13.50216543337415 11.677938697635138
5.037660878949822 14.417805282254577 12.018898931056448
5.046569620894952 0.7516206656066994 11.090300231486264
30.59155610919347 1.4275618714616418 12.04979954953335
30.966454585526197 15.676174038531624 11.976644676245222
30.056499727294938 3.880448933150752 11.368054654386626
31.32699270170857 6.067690444331476 11.411596434967723
0.5892833622533418 6.577241291366393 11.905830758902312
4.520122806771753 4.252783948820204 9.665067728137636
2.6071200611400758 7.719452673325128 11.068646388992981
32.00684938178988 13.105732422598905 11.77479574986862
0.17345719466060355 12.576214665333474 11.45256316400907
2.942321449297903 12.265090236535535 12.53086599627608
6.055916786648365 15.559915906045623 12.161638719816242
5.319881845793667 13.117084509491947 12.683086656614023
5.522323034024409 2.0623853483852006 10.594661333984536
5.755047296553708 0.23818055329895949 12.254106479652435
29.32561723047567 1.1293613569727048 12.605483967029972
29.412776638610485 15.451886357254283 12.023054127859215
28.58127189601544 3.619031867079746 11.218174949993912
30.518491128613636 5.087498196017829 10.725930438612753
30.654715100595507 7.213529120327043 11.961135843108142
0.4178898045328638 8.02849476665748 12.059455992807386
5.682048799122721 4.450185992352335 8.762687735153914
4.707272870768319 3.2838934083157536 10.734884595103225
4.031704353787466 7.959022010035411 10.82466025560241
1.671934847922425 8.722684955983828 11.633226439081437
30.848679687348607 12.212393714833805 11.834138983079953
3.01031708977836 10.844719139641349 11.7820527132988
1.7318295167162103 11.890269852729736 13.455719166333918
4.2265332214755436 12.369106251647233 13.190430333841842
7.551156045729982 15.43250720300196 11.976293532853443
6.702964032775033 12.60479639890146 12.884584439598843
7.063668356829514 2.0867352389102187 10.885525110178133
7.217144705936468 1.0478899818815834 11.979629395075381
28.629139763183304 -0.0912739692953758 12.329894928378941
28.644563853715166 14.37234655559856 11.378179288849708
28.163126131359526 2.266638947320233 10.685490424659076
27.681389234834086 4.81825557892292 11.124595236083739
29.146777560084633 7.256183411315695 11.563173332420725
31.25678649652904 8.560447512975415 12.508568390897864
32.68431266851279 8.749301905281866 12.87797123905359
6.434870735060593 3.295984388438521 8.307196232112716
6.429751532599586 5.710989737681882 8.759000729540194
4.616390406298228 9.262077013682854 10.442323625849337
2.0789513334618115 9.864862751886667 12.330129023973463
30.935273988718244 11.060811823279925 12.771574791343344
29.859809331439227 12.179647310334643 10.757416296075963
3.8695851953307616 10.548557298745335 10.665358203530182
1.2158604468508658 10.475356489918745 13.367816270590897
8.35254392189858 14.212745617978028 11.664595248747382
8.182413544006142 16.757309177842433 11.88271381894327
7.850828839145442 12.843089465487674 11.931347178705213
8.177493790991667 2.462966237063673 9.792006064267195
27.29322737030693 0.08940608079668767 11.820034723509998
29.149536610761672 13.38118846003468 10.363784553887204
27.158166853429833 14.475153472697983 11.24275498741872
27.01137206078173 1.3803516319906188 11.12857486119061
26.175778604532763 4.6501741621885015 11.111895550080916
28.192977065190593 6.19041389257757 10.730378254908675
28.646159449287428 8.614789751416074 11.202607592958199
30.476706469565023 9.76917607863732 12.267566976337449
-0.16640931605162454 10.037545458278917 13.538706054591966
7.794451128925517 3.17472193362393 8.562301906243075
7.866984244314595 5.722039550071856 8.379356199124125
5.851215171356917 6.906905223019244 9.361094598650801
5.987139969168987 9.333682484854355 9.948440445306527
32.064257580816886 11.035605488329544 13.730137727012345
29.2975613416634 10.88749098182564 10.387428208933926
9.687891208009775 14.38354750524007 11.109203450743916
9.488475003051445 0.04451630192755887 11.264057686520225
8.652914788376902 11.768990604887197 11.48340525858735
9.63653297552759 2.402074717723179 10.053373795551021
26.453212784659826 15.699516347379745 11.609875403527862
28.021251091725894 13.18779995018219 9.320420489102602
26.845529845989745 13.697250039049418 10.029320473213879
25.682806055852648 1.569377313182143 10.561770902954194
25.368241037096077 4.08406439702375 10.020541888419306
27.286778504869037 7.183687909662933 9.935506663709187
27.63638014306653 8.553377648209185 10.21080308286707
29.481486972941013 9.733574859386948 11.271373173849035
8.563661161053496 4.407514908335733 8.274013181589218
8.68884893032722 6.957838476786403 8.622171854542081
6.601012124022375 8.143745317466584 9.522035319884687
6.79879949183402 10.514904070736964 10.185169615266908
28.354896774200764 10.754523786531092 9.264588689809102
10.646544972769446 13.296148566504547 11.247319851511904
10.15393808140797 15.668230936312083 10.78135257061584
10.240299691756654 1.279543085217043 10.831917219032594
8.008194452459783 10.527129395083318 11.040145250359924
10.156198508468675 11.983790225373754 11.437288426466512
10.752785044622557 3.011057083239911 8.911396961574024
25.070396530273833 15.863987263105281 11.202373497363677
27.617033546752854 11.912554200817114 8.783522243066372
25.663359734815703 12.88737268018731 9.813367287267326
25.37442396993859 2.643860734122636 9.627729480811372
24.698656003511207 0.47858450349827236 10.6064831615079
24.30251616112274 4.810547579094656 9.250542954137785
26.059699026650705 6.8715391061601485 9.305555418850457
27.451424022981822 9.654916316477165 9.273250226806422
10.009204266374038 4.334381271620937 8.330313172071762
10.124552529618812 6.8218653294891105 8.76110758989089
7.9911082832068105 8.177566475754437 9.038159726007692
12.109839078831401 13.570210782620615 11.108793783453503
11.442315022860702 15.930252551389229 10.096330337145808
11.557497078233366 0.696364886445651 10.087317656756714
11.10534518294362 10.92880183057843 11.206119026876028
12.192943014886716 3.8480551822385034 8.78311257577596
11.794908402756185 1.6082128696153548 8.84110975931879
24.261163642541618 14.811870476089114 10.345291001919968
25.857025147399007 11.629910747419473 8.741911751140087
24.32508719015536 13.360046037847786 10.140691452307728
24.275424277968703 2.486913094917932 8.574182257665065
23.77700011108336 0.18474849697309534 9.483292498991293
23.63951295927345 3.791160403549702 8.311175857219588
23.428462203267376 5.8185322886627215 9.87177413810057
24.85342877402062 7.746455862265976 9.32457568590537
26.11444789972394 10.081593570587277 8.842338761190028
10.753715808706378 5.5656964598732905 8.329844980882719
10.912909708613936 7.711459192021743 9.61093312190442
12.943571006912725 13.56448436009025 9.779130806568482
12.140786984618401 14.973486577063444 9.198515208255266
10.988334840977739 9.428546299734236 11.464326467633803
12.622557122718263 11.223150024456029 10.926023648030444
12.119080236520752 5.271465817191329 8.718268096093365
13.388675688424984 3.1874174627528364 8.31702824708264
13.118222238926572 1.7632511415423382 8.146372558676092
23.73774181169083 15.560873108638676 9.267105217450215
24.133948137228142 11.48167868971993 8.798387313318521
23.20079066005024 12.649129992684943 9.285247626025672
23.61232135139615 1.132214492421119 8.396913368713271
22.24386545716052 3.9816940986509834 7.713295708810371
23.56009883797899 7.215493904596992 9.583895080737125
22.101624760208246 5.376774895455045 10.286825627188097
24.915391068743464 9.197507821221684 8.920468165861749
12.411739057733143 7.558138846853869 9.677767414140451
10.230360461004436 8.539355469872364 10.602035345211984
14.402410742002116 13.729257550318854 9.17323288404689
13.02215408884663 11.92761754688673 9.698075206965235
12.66490688853205 15.557967914803621 8.01334773708896
12.697117974147089 9.58156437039904 11.162986913585346
12.964380232500975 6.247140740986888 9.474279818602195
14.767802128050118 3.579165218730509 8.867328465905256
14.45174123844455 1.1851545130280983 8.344417431641713
23.333756957738743 14.872526893038332 8.096685768738798
23.72520973813369 10.036957702300727 8.927783653190563
22.069579882465316 12.243830263153 10.17726888895179
22.63508554653451 13.62658497744302 8.20191173847644
22.929206997021478 0.7183268083964227 7.147428132952044
20.922014250264706 4.203765100239149 8.406569811987307
22.344554186085137 8.047319750987512 9.44367181961844
20.97307330857709 5.246780066107345 9.414643965897714
13.297826465529315 8.64840939336855 10.179960988288798
14.710726344767329 14.390096786139903 7.9224601225157905
13.774277951721636 11.234854764935987 8.62708786202704
14.053141519548847 15.601495443245586 7.721137911226862
14.324991115172987 5.80637413642816 10.045824212627682
15.421863346379855 2.1336549589977367 8.81202338169943
14.527099887659508 4.357941889832386 10.135775444822766
15.909484001578011 4.353542116509934 8.114184414429317
14.858817558817895 16.77636926456374 7.6752551747005455
22.46209639324177 9.5216300536516 9.28946134672707
20.643416615032876 12.082936262380448 9.71217946653519
21.23142682498585 13.619565491760635 7.857615642833192
21.574679322468715 0.06677193393714606 7.103593732877798
19.65564323107942 3.4698426067871515 8.020429128823253
21.129408433084347 7.630416039143303 8.696555729701448
20.30534980315986 6.468556814485071 9.055716895596841
14.57859108643938 8.906786921380915 9.52812180534226
15.846956600089994 14.127101175441757 7.1016039203243615
14.892458032133087 10.259280599308118 8.895595508943785
15.586508864492643 6.488977136470189 9.542811303898514
16.706982613539218 2.146787106853298 8.105113210141589
17.03687199810439 3.4846204713816453 7.666008398716929
16.423764399462712 5.618712049106037 8.681807707246563
16.31114194532055 16.608438985080856 7.183947045697479
21.221421111084787 9.905014881711026 8.623049713021537
20.200505877432477 10.73687431415744 9.340260090738347
20.24438475566968 13.052263421611555 8.749929525252465
20.646208907284333 14.417654145003043 6.7898471123196735
21.195858340354174 15.692009863886861 6.262020070571172
18.328539855424914 4.211557065207155 7.9397246726117885
19.694037249536976 1.9460096647035614 7.836429991528952
20.53664467798901 8.737630750857805 7.98642674371893
18.797013363755926 6.629148540754553 8.982796117903238
15.790080266253737 7.9158975142642065 9.634167109660726
15.826180616076165 13.01197694756361 6.124898576079904
16.788723645043223 15.258816914932812 6.937561432463063
16.27314682575606 10.663136128436507 8.847313292573624
17.284255794953847 1.0109520376065282 7.496640236080253
17.93060496801765 5.523394822471552 8.711011132663181
18.75516222155847 10.447026651769983 8.79721683534591
18.971564871046503 12.946047519838631 7.987772793387432
19.109052022856414 14.064883006893348 6.84310386007343
18.702540809248248 1.0608206134017655 7.161473868623364
19.10868636553777 9.015723293681463 8.19260643859419
18.276948931921776 7.961171517612792 8.776440851332083
17.17103499247209 8.522763958259455 9.61649289227432
16.144036550700527 11.708451739133617 6.567222201929244
18.09950540765647 14.985678315353901 6.355892403974497
16.82256356780495 11.511536693411987 7.7835243871669775
17.33358629139628 9.964143133116949 9.5030735767284
18.27541981949836 11.624117152777313 7.897997132888243
