N=134, ave_E=-6.2691661194029855 
1
21.299999999999997 0 0
0 17.21658502723464 0
0 0 10
C
134
C
2.5911449999999996 0.4301649851979711 5.0
3.9305741999999997 0.4921188664184749 5.0
1.9525283999999998 1.5469463195255897 5.0
1.8605123999999997 16.49911827939469 5.0
4.6254653999999995 16.587559876679595 5.0
0.23297939999999998 1.7222266500293626 5.0
2.8265313 2.99809611664264 5.0
1.29728289 2.8176663055572213 5.0
2.5408131 15.297004663038086 5.0
0.42037892999999993 16.53935343860334 5.0
3.9055466999999995 15.33501888277822 5.0
5.9882181 16.670974231136547 5.0
20.8682916 0.5634196316502645 5.0
20.848929899999998 3.2272660799401605 5.0
4.196291699999999 3.092305269911668 5.0
1.7187843299999999 4.428208968514912 5.0
1.8587231999999996 14.06844637207965 5.0
21.114775199999997 15.29511083868509 5.0
4.5636528 14.152411657257474 5.0
6.709925999999999 0.7306821985068545 5.0
6.648092099999999 15.483477495468065 5.0
19.418485799999996 0.7312916656168186 5.0
19.446069299999998 3.175323642912993 5.0
0.17838622199999998 4.608655996185359 5.0
4.7901356999999996 4.327646895370835 5.0
2.4951245999999996 5.594064456804161 5.0
2.5205354999999994 12.864920995750813 5.0
0.5051401499999999 14.050558340236353 5.0
19.600430399999997 15.793100560597852 5.0
19.7327034 14.40389431475029 5.0
3.876387 12.884496252926777 5.0
5.914434899999999 14.206523383998071 5.0
8.164886399999999 0.7109537137241462 5.0
5.997696599999999 1.9773420069629255 5.0
8.096619899999999 15.521181816677709 5.0
18.756545699999997 1.9458528729481135 5.0
18.719078999999997 16.79130094389189 5.0
18.753776699999996 4.375646734426765 5.0
20.850207899999997 5.704147301468299 5.0
6.2113995 4.377282310004352 5.0
3.9668267999999998 5.55291681858907 5.0
1.7699660999999998 6.82341471067385 5.0
1.8109536899999996 11.633694134113155 5.0
21.079736699999998 12.80722821932455 5.0
19.606969499999998 12.760812306091124 5.0
18.455108099999997 13.827293665603174 5.0
4.5641427 11.64460944902042 5.0
6.573840299999999 12.909529167556377 5.0
8.906680199999998 16.6967991086774 5.0
9.257171699999999 14.455303037641611 5.0
7.980556199999999 13.86510128632298 5.0
17.350639199999996 1.905376681549085 5.0
17.327933399999996 16.66379491518019 5.0
17.353748999999997 4.33670281909516 5.0
19.460425499999996 5.64282182560129 5.0
0.30408518999999995 6.858932525585035 5.0
4.6351143 6.768734836627353 5.0
2.4824724 8.011892791688885 5.0
2.4917379 10.430616388995025 5.0
0.42246845999999993 11.624672643558883 5.0
18.799827299999997 11.595283932917393 5.0
17.171932199999997 14.082822220577391 5.0
3.8861423999999993 10.436779926434774 5.0
5.9223798 11.653871971765073 5.0
8.071208999999998 12.468870673784306 5.0
10.375421699999999 16.637487973258576 5.0
10.546780199999999 14.204698425985184 5.0
16.634831399999996 0.6583053967108627 5.0
16.6532985 3.0990025214872623 5.0
16.5919545 15.369297103567446 5.0
16.653447599999996 5.544997189476542 5.0
18.774033 6.815615597656513 5.0
20.926589699999997 8.036340342427557 5.0
6.0378471 6.791013097652595 5.0
3.9053123999999997 7.9994107675441395 5.0
1.7784008999999996 9.221547272287417 5.0
20.964950999999996 10.414777130769968 5.0
19.512163199999996 10.396854665756619 5.0
17.3265915 11.6377055984245 5.0
16.544562 12.876060126263432 5.0
4.609554299999999 9.230895877957206 5.0
8.929790699999998 11.475990215263685 5.0
11.025327299999999 0.6133993779843266 5.0
11.192915699999999 15.420051596227731 5.0
11.112529499999999 12.919377054191957 5.0
15.234292499999999 0.6342641573788322 5.0
15.247988399999997 3.0777916887337096 5.0
15.218381399999997 15.363839446113811 5.0
15.256614899999999 5.536629929153306 5.0
17.374346099999997 6.7671509108048475 5.0
19.492929299999997 8.018435093999233 5.0
0.35063633999999994 9.224181409796586 5.0
6.771333899999999 7.9891152496978535 5.0
18.801935999999998 9.194654966474877 5.0
16.638495 10.41980437359792 5.0
15.206772899999999 12.876559407229223 5.0
6.038060099999999 9.218190038207108 5.0
8.2681062 10.280763232917973 5.0
10.351501799999998 11.628942356645638 5.0
12.425205899999996 0.6382790650071835 5.0
10.296505199999999 1.8269723533350584 5.0
12.572963999999999 15.412372999305585 5.0
12.490916399999998 12.905138938374433 5.0
14.539145699999999 1.8425361461996785 5.0
14.543405699999997 16.602262840292852 5.0
14.542447199999998 4.303096045121999 5.0
14.543405699999997 14.126276881186131 5.0
14.559359399999998 6.755874047612009 5.0
8.177581199999999 7.947399464176864 5.0
17.382887399999998 9.211751035406921 5.0
15.240852899999997 10.427878951975694 5.0
14.527047299999998 11.657194772675329 5.0
8.908128599999998 9.1227929405712 5.0
11.044135199999998 10.417549000959353 5.0
13.137137099999997 1.839127262364286 5.0
10.966943999999998 3.0643799689974935 5.0
13.214903399999999 14.150982680700212 5.0
13.154262299999997 11.664838936427422 5.0
13.121204699999998 4.302510681231072 5.0
13.132323299999998 6.758955816331883 5.0
15.249308999999997 7.991043507220904 5.0
8.852620799999999 6.727277299881772 5.0
14.553800099999998 9.218758185513005 5.0
10.317911699999998 9.161995104678214 5.0
12.441244799999998 10.434214655265718 5.0
12.411808199999998 3.0696482440158275 5.0
10.280636699999999 4.297242406212739 5.0
12.4118721 5.532980013127533 5.0
12.425994 7.983537076149029 5.0
8.126375999999999 5.486013169173236 5.0
10.278698399999998 6.742582843970983 5.0
13.140182999999997 9.216330647024167 5.0
11.006135999999998 7.970590204208548 5.0
10.9783821 5.532515165331797 5.0
