N=192, ave_E=-5.733560416666666 
1
25.56 0 0
0 19.676097173982445 0
0 0 10
C
192
C
3.96622188 0.49303970776621736 5.0
4.69815804 1.6019451922975199 5.0
4.75436448 19.039634458695634 5.0
6.0177441599999995 1.4716402387628211 5.0
4.1067252 2.9161156577672425 5.0
4.094200799999999 17.875852339146096 5.0
6.18293844 19.054706349130907 5.0
6.606390959999999 2.664419022717659 5.0
2.55505428 2.777458200982188 5.0
3.8986923599999996 4.424249153958649 5.0
4.80609792 16.67118328966902 5.0
2.69780688 17.954517375647676 5.0
6.848316359999999 17.804369078113016 5.0
7.90126056 2.7553422677586314 5.0
2.102256324 1.550527615162469 5.0
1.55712798 3.9837997187190517 5.0
2.514219624 5.021497407577711 5.0
4.60685772 5.488568602293707 5.0
4.162446 15.43926284560598 5.0
6.15244536 16.65715423238397 5.0
1.96229232 16.80427241095384 5.0
2.0025314279999997 19.133371385632486 5.0
8.18901504 17.683262700007155 5.0
8.644085279999999 1.6168439330776594 5.0
8.43055704 4.015674996140903 5.0
0.729574416 1.644658064042801 5.0
0.23299703639999997 4.456596657712676 5.0
2.3966666279999997 6.684344055848142 5.0
5.935185359999999 5.676652415179806 5.0
3.88404648 6.631080860798171 5.0
4.83048216 13.661133943993184 5.0
2.66294304 15.594428547920003 5.0
3.37054608 13.933844650824582 5.0
6.814372679999999 15.46545173094455 5.0
0.4476578399999999 16.712463741540034 5.0
0.5825788559999999 19.091008748416904 5.0
8.81919684 16.36974548096361 5.0
8.799362279999999 18.883662036397475 5.0
8.04365532 0.3698260196530218 5.0
9.99222192 1.7132764853273474 5.0
7.0116958799999995 4.775211699250973 5.0
9.791601479999999 4.114271919079729 5.0
8.40215988 5.686195322309187 5.0
25.50251556 0.5715099509057767 5.0
24.562086479999998 3.727675961805322 5.0
25.537916159999998 5.881598643344006 5.0
0.939493584 6.940703925927959 5.0
2.8057723199999995 8.425796712328633 5.0
5.98380048 7.0917376478354495 5.0
4.752830879999999 7.6677750687009585 5.0
4.466865599999999 12.095133046013098 5.0
6.187667039999999 14.188512376547436 5.0
1.484547804 14.75681709122357 5.0
2.482985304 12.769806742011781 5.0
25.368734519999997 17.900781954265533 5.0
25.0549344 15.42903127507551 5.0
10.32992064 16.04632947171486 5.0
10.118999520000001 18.944539881053778 5.0
10.77982776 0.5294837749518676 5.0
10.53943596 2.9686705133189495 5.0
10.320821279999999 5.511589635987266 5.0
8.23435848 7.094826795091763 5.0
24.040815839999997 0.5917487844589351 5.0
24.3658368 2.387438602799508 5.0
23.541092279999997 4.637951245365272 5.0
24.135157799999998 5.928427754618085 5.0
26.212035599999997 8.326393069405674 5.0
4.236007679999999 8.997879237662172 5.0
1.7328299759999999 9.217700595289903 5.0
7.0861266 7.764384705825213 5.0
5.52382272 11.271314533435625 5.0
3.0687080399999997 11.494087305639455 5.0
7.085794320000001 13.237428867448648 5.0
25.756812 14.018156727215098 5.0
1.152224352 12.719455609343559 5.0
23.925565799999998 17.902533126914015 5.0
23.71556484 15.50887687740753 5.0
9.87303564 14.450342201641622 5.0
12.00192804 15.801952344813998 5.0
10.79869104 17.771549348026817 5.0
11.818995119999999 3.0175459386991217 5.0
11.75391936 5.3675802807708894 5.0
10.52110944 7.183211823597293 5.0
9.28086156 7.807140864984277 5.0
23.231892959999996 19.104250761814995 5.0
23.03929836 1.7119975390110387 5.0
22.1545134 4.438809465867395 5.0
23.387451119999998 7.043118011718539 5.0
25.027482959999997 8.87000428212846 5.0
5.42500776 9.862269862612395 5.0
1.7438463359999998 10.636288173242516 5.0
6.747328799999999 11.863151860331843 5.0
8.49954348 13.612061757641273 5.0
25.980973199999998 11.329516428876266 5.0
23.167379519999997 16.710968358154812 5.0
22.929236999999997 14.345724392967558 5.0
10.810499759999999 13.307652858262593 5.0
12.78950832 14.604071548861945 5.0
12.751193879999999 16.945704197440424 5.0
12.099746159999999 18.1009862430108 5.0
12.43427544 1.8278425287325775 5.0
12.46568868 4.219381630183143 5.0
12.48588108 6.483765921256565 5.0
11.262272759999998 8.51847113001809 5.0
9.16259544 9.151923402437282 5.0
21.757310999999998 19.102538941360855 5.0
21.694714559999998 1.8474045045429508 5.0
21.281102639999997 3.175525322909027 5.0
21.492995039999997 5.717834486564951 5.0
22.07803788 6.924904019897252 5.0
23.7879252 8.325842138684802 5.0
24.93771624 10.2015251300862 5.0
7.88799492 11.170946761751141 5.0
8.88705864 12.15730951308288 5.0
24.61622256 12.275818646361778 5.0
21.835575719999998 16.72731919490639 5.0
21.54777012 14.270915871512077 5.0
23.52240792 13.170805602417543 5.0
10.22083056 12.050448629330983 5.0
12.194011439999999 13.401488165685313 5.0
14.22523908 14.705895351737306 5.0
14.057718839999998 16.992198815062544 5.0
13.740774839999998 1.8186439533037408 5.0
13.8638718 4.277642553915306 5.0
13.32741852 7.523726361290234 5.0
12.6203778 8.66704533977883 5.0
10.432825199999998 9.646068906864675 5.0
7.976892599999999 9.817723178610498 5.0
20.93859864 0.5878588200476387 5.0
21.144228839999997 17.86603396665628 5.0
19.97381088 3.4615764236243836 5.0
20.20410648 5.768520112885129 5.0
21.311723519999997 8.082232379573725 5.0
23.60200176 10.436201941080288 5.0
23.02071624 11.710288261387175 5.0
21.019700519999997 15.574929535620587 5.0
20.91071268 12.889673525995683 5.0
10.94535432 10.907149326939559 5.0
12.960658079999998 12.213228981251339 5.0
14.81664636 15.92789904282466 5.0
15.30691272 13.879794411887652 5.0
14.73206832 18.1440178675303 5.0
14.40704736 0.7041130725903967 5.0
14.45765616 2.962551247097841 5.0
14.765679719999998 5.629528162448117 5.0
14.60005092 7.116765643440755 5.0
13.12380756 9.908725128040167 5.0
19.4675184 0.3652178776948752 5.0
19.77428952 17.583898409278543 5.0
19.56152808 4.755771715243079 5.0
18.770292719999997 2.7902870163396245 5.0
19.4167818 6.852299221325256 5.0
19.957887 7.9999862933864785 5.0
21.85323768 9.295027657183654 5.0
21.65875164 11.699800901593441 5.0
19.7072712 16.08552425728543 5.0
19.5557004 12.711821283640054 5.0
12.291803999999999 11.00690713961165 5.0
14.34841272 11.695609892895384 5.0
16.130200319999997 16.441228741996685 5.0
16.60042764 14.396764189036867 5.0
15.404551920000001 12.502625018486274 5.0
16.1931546 17.784397839481425 5.0
13.856024879999998 19.214436905989295 5.0
15.73079976 0.7136008866476908 5.0
15.800118479999998 2.8095695915701273 5.0
16.078211279999998 5.249818839184604 5.0
15.672420719999998 8.018993403256546 5.0
14.456327039999998 10.280996886571915 5.0
18.572023799999997 1.4853879278582829 5.0
18.90777996 18.653510727753403 5.0
18.22489344 5.013253122861813 5.0
17.70377616 3.721969893624867 5.0
19.17477972 9.056553359434988 5.0
21.07790064 10.445961285278585 5.0
18.64341288 15.247696363520086 5.0
18.94282272 11.383015737092325 5.0
18.745934039999998 13.796052942315182 5.0
17.24272488 15.657136269613487 5.0
17.44574796 13.42445017108735 5.0
16.802147159999997 12.240185234379695 5.0
17.47598544 18.458855098411195 5.0
16.9227648 1.717262862614796 5.0
17.03333736 0.05481111361464768 5.0
16.43211504 3.9268570934975466 5.0
17.24323608 6.150944737558652 5.0
17.04182328 7.579409716292604 5.0
15.596405279999997 9.484055922734104 5.0
17.81005464 8.83848317445574 5.0
19.72623672 10.30226674761699 5.0
17.53533576 11.162682800938068 5.0
16.974447119999997 9.913762208916706 5.0
