N=138, ave_E=-7.241665 
1
21.299999999999997 0 0
0 17.21658502723464 0
0 0 10
C
138
C
2.4834308999999997 0.6204478478944765 10.0
3.8939595 0.6233540074470737 10.0
1.7805692399999997 1.8393855111396944 10.0
1.7724347699999998 16.604948627557103 10.0
4.6210776 1.8363553921749012 10.0
4.609575599999999 16.606308737774253 10.0
0.35339468999999996 1.8423123305943245 10.0
2.4681588 3.074899302449134 10.0
2.4845810999999998 15.374186613715178 10.0
0.3489579 16.602934287108916 10.0
6.036739499999999 1.856911994697419 10.0
3.9050780999999994 15.375219608816813 10.0
6.034992899999999 16.607496682141132 10.0
20.938112999999998 0.6173402542970606 10.0
20.944929 3.0735736254020365 10.0
1.7815618199999999 4.309724430357484 10.0
1.7765286299999996 14.143114701342768 10.0
20.940115199999997 15.368126375785591 10.0
6.747627 0.6223692187835158 10.0
6.741002699999999 3.073711358082255 10.0
4.619607899999999 14.145180691546035 10.0
6.747627 15.375804972707739 10.0
19.5116946 0.6196765448852564 10.0
19.522685399999997 3.071404335688605 10.0
0.35630214 4.306522145542419 10.0
2.4854543999999996 5.527109157633245 10.0
2.4898421999999996 12.912834751881606 10.0
0.35486012999999994 14.140256748228246 10.0
19.513292099999997 15.364528109514902 10.0
8.167421099999999 0.6194682242064269 10.0
8.163374099999999 3.074451671238426 10.0
6.0344603999999995 4.290235256106654 10.0
3.9104669999999997 12.914625276724438 10.0
6.039423299999999 14.14702286614395 10.0
8.168486099999999 15.374789194191132 10.0
18.810690299999997 1.8390411794391497 10.0
18.824620499999998 16.600196850089585 10.0
18.813629699999996 4.300789022728349 10.0
20.945291099999995 5.532842280447315 10.0
3.8930222999999993 5.5237347069679075 10.0
1.7763880499999998 6.759282931447401 10.0
1.7816597999999997 11.682158820964819 10.0
20.947910999999998 12.910768761678337 10.0
18.813437999999998 14.14215057258124 10.0
8.8749858 1.846186062225452 10.0
8.8773927 16.604087798305738 10.0
8.8730049 4.303974090958388 10.0
4.619480099999999 4.308966900616285 10.0
6.744027299999999 5.525370282545495 10.0
4.620971099999999 11.684448626773442 10.0
6.750289499999999 12.915950953771535 10.0
8.879650499999999 14.141737374540586 10.0
17.4020148 1.8363726087599284 10.0
17.3951136 4.3002036588374235 10.0
19.5246237 5.530707423903937 10.0
0.35572917 6.761262838725534 10.0
4.608531899999999 6.756511061258017 10.0
2.4874139999999993 7.989666180418724 10.0
2.4913757999999997 10.451896088088688 10.0
0.36002963999999993 11.680764277577612 10.0
19.527030599999996 12.910217830957466 10.0
17.4059553 14.142357171601567 10.0
10.292990699999999 1.8453252329740903 10.0
10.2962283 16.60176355932706 10.0
10.291457099999999 4.303698625597952 10.0
8.162671199999998 5.531172271699672 10.0
6.0317552999999995 6.756270029067635 10.0
3.910701299999999 10.452911866605293 10.0
6.040829099999999 11.684724092133878 10.0
8.170296599999999 12.913471765527612 10.0
10.298060099999999 14.14097984479939 10.0
16.675514399999997 0.6223554455154942 10.0
16.6875276 3.069906492791236 10.0
16.683672299999998 5.529708861972358 10.0
18.8152059 6.760178193868817 10.0
20.947612799999998 7.989149682867908 10.0
3.904886399999999 7.989201332622989 10.0
1.7792869799999997 9.219601798179339 10.0
20.9501049 10.448934835464001 10.0
18.8185713 11.678319522503745 10.0
16.6926396 12.90827235684939 10.0
16.6791141 15.35519672043014 10.0
11.004538499999999 0.61355949222508 10.0
11.002110299999998 3.0736252751571183 10.0
11.007392699999999 15.370726080124705 10.0
11.001300899999999 5.534064657984248 10.0
8.872088999999999 6.763828109894591 10.0
6.744112499999999 7.990750825275441 10.0
4.618691999999999 9.221202940586872 10.0
6.749778299999998 10.453152898795675 10.0
8.8792032 11.68208995462471 10.0
11.008265999999997 12.910424429977793 10.0
15.260810999999999 0.6007847861348719 10.0
15.263153999999998 3.0686841152543023 10.0
15.262408499999998 5.529519479537059 10.0
17.394389399999998 6.759971594848491 10.0
19.526817599999998 7.989098033112826 10.0
0.35924153999999997 9.218551586492678 10.0
19.529245799999998 10.448797102783784 10.0
17.399969999999996 11.676976628871621 10.0
15.269203199999996 12.91051051290293 10.0
15.264005999999998 15.378645709237233 10.0
12.4232889 0.6123956510772388 10.0
12.4213293 3.072334031280076 10.0
12.4256958 15.37012349964875 10.0
12.420903299999999 5.53237743265158 10.0
10.292500799999997 6.764310174275353 10.0
8.163139799999998 7.992834032063736 10.0
6.037037699999999 9.221495622532336 10.0
8.1680175 10.45261918465983 10.0
10.299252899999999 11.681711189754111 10.0
12.427612799999999 12.909012670005561 10.0
14.549816999999997 1.8359594107192747 10.0
14.556803399999998 16.598785090117353 10.0
14.551648799999999 4.299428912511198 10.0
14.552159999999999 6.759627263147946 10.0
16.6850994 7.988151120936328 10.0
18.817996199999996 9.217862923091591 10.0
16.6881879 10.4467827623356 10.0
14.558656499999998 11.679249218095217 10.0
14.554545599999999 14.142735936472167 10.0
13.131066599999997 1.8399192252755387 10.0
13.135582199999998 16.59935323742325 10.0
13.130981399999998 4.301012838333704 10.0
13.136093399999998 14.13986076677262 10.0
13.131386099999997 6.76078077434477 10.0
11.0046237 7.993109497424172 10.0
8.8751562 9.223613262490685 10.0
11.0076057 10.450518761286506 10.0
13.138266 11.678663854204292 10.0
15.263729099999997 7.988340503371627 10.0
17.3968815 9.216657762139684 10.0
15.268159499999998 10.448125655967722 10.0
12.424353899999998 7.9911295901460395 10.0
10.2957171 9.222545834218996 10.0
12.427314599999999 10.449571849110011 10.0
14.556036599999999 9.218000655771807 10.0
13.1360508 9.218947567948305 10.0
