N=234, ave_E=-5.561273931623932 
1
29.82 0 0
0 22.13560932073025 0
0 0 10
C
234
C
2.270008734 0.2745125454301041 5.0
3.68533452 0.4606442435253286 5.0
1.196220354 1.0960624040034148 5.0
1.66838427 21.19201256660616 5.0
4.36487268 1.7373686365608156 5.0
4.449561480000001 21.36752581291023 5.0
1.2722494260000001 2.437219128649683 5.0
0.2095776438 21.146723109935948 5.0
2.41607604 20.08529850739761 5.0
5.7831417 1.7165788722867856 5.0
3.78454566 3.0478299117620273 5.0
3.79599654 20.136055459570045 5.0
5.83434264 21.3610843505979 5.0
2.400626298 3.2491975497527106 5.0
29.1155025 0.23875468213339648 5.0
1.768570524 18.931457735945227 5.0
6.437332860000001 0.35422951527685 5.0
6.017765460000001 3.487243892387844 5.0
7.35489426 2.3855324808857783 5.0
4.68135234 4.225732090546046 5.0
4.56284766 18.96284602996202 5.0
6.60978192 20.217979349666066 5.0
1.815074814 4.447818658860933 5.0
28.43867796 1.6124618202857988 5.0
0.32828241599999997 18.80851656177789 5.0
7.92699096 0.6065643937285145 5.0
7.13691006 4.425727320758844 5.0
8.94352494 1.997132225500517 5.0
8.45811498 3.4725458477988784 5.0
4.00494528 5.64719237868606 5.0
5.97133572 18.99489839225844 5.0
8.0130813 20.315221081412034 5.0
0.248334996 4.310688559119009 5.0
2.5771368420000003 5.6463512255318715 5.0
29.13673434 2.982618406703156 5.0
30.183804 17.36686859793737 5.0
8.66551308 21.576353151242 5.0
6.73893234 5.85148191710708 5.0
8.321330640000001 5.784034715506814 5.0
10.320672179999999 1.9665208913708792 5.0
9.2479275 4.6029228733712895 5.0
4.69599396 6.958705095330006 5.0
6.6706743600000005 17.81121881944171 5.0
8.80504086 19.183051071484645 5.0
29.3048595 5.444452332917492 5.0
1.8375740040000001 6.787464021624837 5.0
1.671661488 16.840683028774293 5.0
29.06886402 16.591679559525396 5.0
10.047043859999999 21.662903383686054 5.0
6.06535818 7.031110673418115 5.0
8.94191466 7.001116922788525 5.0
10.791858 0.7218599284364701 5.0
10.60912104 4.615894340433237 5.0
3.9985637999999994 8.169434382736668 5.0
5.90319702 16.658706184548567 5.0
10.199931000000001 19.27287737410817 5.0
27.93486906 5.3455504304724695 5.0
0.12387734940000002 6.663836643568558 5.0
2.63198775 8.162771564331129 5.0
0.951353424 8.123281637302947 5.0
2.3259093060000002 15.621918515184204 5.0
29.136078299999998 15.213206624686242 5.0
27.8268312 17.191178266758737 5.0
10.83831756 20.551607253348113 5.0
6.79087878 8.27043916806716 5.0
10.3293498 6.926763411080192 5.0
8.212398180000001 8.269863642224822 5.0
11.19156528 5.8227277605994505 5.0
4.67992098 9.385985335394682 5.0
6.52085868 15.413046905633793 5.0
4.4826616800000005 16.751188760290578 5.0
10.90553184 18.12403925036227 5.0
27.25267692 4.12432886424778 5.0
29.098982220000003 8.03276913079048 5.0
1.8486491520000001 9.536773106087496 5.0
0.1245414408 9.484909373449026 5.0
1.70337804 14.403286815250043 5.0
3.69338592 15.585704658335489 5.0
0.338406306 14.259958744898315 5.0
27.96471888 14.33716775020902 5.0
28.08644412 18.65513892479455 5.0
26.84819844 16.110429277283398 5.0
12.13387728 21.206976238506975 5.0
6.07245534 9.465540715293386 5.0
11.0102895 7.9823220771485355 5.0
8.9943084 9.510254646121263 5.0
12.73260324 6.048112534703126 5.0
5.73608574 14.2286589933188 5.0
7.93918734 15.354343269715216 5.0
10.111276140000001 16.815227078055454 5.0
12.39748608 18.176899085420175 5.0
25.88396874 4.110582650859608 5.0
27.74038302 8.218221265679558 5.0
2.5089474480000002 10.756732942580904 5.0
-0.374846346 10.760031148369691 5.0
2.471785764 13.209911845550833 5.0
4.33558944 14.338385208721661 5.0
29.5865094 12.972795198507171 5.0
28.15547742 12.951412199903345 5.0
26.55014754 14.389319245768661 5.0
27.156030299999998 19.694649274105362 5.0
25.637208240000003 16.657112420677475 5.0
13.28996886 20.612280958496235 5.0
6.66351756 10.73326919670093 5.0
10.41409824 9.217356263589359 5.0
12.42411534 7.832685358140399 5.0
8.36507658 11.100144785582714 5.0
12.96057714 4.256810486032352 5.0
14.2977954 6.141237043115438 5.0
6.36427386 12.986563547504666 5.0
8.506989959999999 13.97033643254588 5.0
8.67571152 16.672319584280817 5.0
10.87779924 15.667097293807815 5.0
13.39114812 19.24080287620243 5.0
13.04097186 16.985914761527603 5.0
25.18158846 5.322153091420457 5.0
27.132770700000002 9.487698460223438 5.0
1.82629608 11.941629973910272 5.0
0.419758248 11.892975904623308 5.0
27.09707616 11.949643064484377 5.0
25.18981878 13.869508732089951 5.0
25.76689542 19.5229876238231 5.0
24.75593778 15.509890196411988 5.0
25.15567488 18.169461520688408 5.0
14.55153378 21.2756630342292 5.0
5.73853098 11.816785137341354 5.0
11.423564879999999 10.087152896238134 5.0
13.056358979999999 9.336003129548473 5.0
7.712972820000001 12.799473377525853 5.0
9.82902984 11.99911615131621 5.0
12.07200078 3.1220063385957944 5.0
14.34404622 3.9105431494281677 5.0
15.11298474 4.97519955092733 5.0
14.98347648 7.3084034513789025 5.0
9.756805799999999 13.428058275406629 5.0
10.864350420000001 14.186712013656019 5.0
12.249847260000001 15.861957062658204 5.0
14.840877240000001 19.136986868488208 5.0
14.62181952 16.9016666324529 5.0
23.82188592 5.379085878593375 5.0
25.7963874 9.173859791274124 5.0
25.70594334 12.315766042649257 5.0
23.81774094 13.507215214337561 5.0
24.959846940000002 20.700779124560515 5.0
23.494611420000002 15.907888451998717 5.0
14.818035120000001 0.4681238659148033 5.0
15.57650682 20.321574001287086 5.0
4.36397808 11.715293368605806 5.0
11.14370418 11.383237093185532 5.0
14.495502 8.702083549821399 5.0
13.39755942 10.804656536760284 5.0
12.5973099 1.8047693533815072 5.0
14.9104473 2.6738930635069313 5.0
16.5518892 4.954879061570901 5.0
16.3914576 7.244475811660633 5.0
12.19208592 13.53386648795972 5.0
12.895629179999998 14.74818174407634 5.0
15.45522888 17.98633362477801 5.0
15.60722142 15.750194371197837 5.0
23.022531 4.209595231351234 5.0
24.69033378 9.988029637699904 5.0
24.612921059999998 11.386623841411604 5.0
23.35952682 12.112627555912914 5.0
22.33520982 14.995060194830444 5.0
23.24829822 17.34893875438758 5.0
13.97207154 1.555084107365534 5.0
16.13423028 0.9523381062448455 5.0
17.00703186 20.326111801197836 5.0
12.39122388 11.985746243286487 5.0
15.855174719999999 9.33892502997881 5.0
14.773841879999999 11.373253933381882 5.0
16.68506532 2.5743270927822866 5.0
17.40897564 3.8519944627748366 5.0
17.17023672 6.113766751948412 5.0
16.92630912 8.453456385930957 5.0
13.828488239999999 12.847286293658629 5.0
14.21513436 14.86426087935425 5.0
16.91336724 17.933230298017573 5.0
15.45215742 14.183657299569758 5.0
17.09273454 15.558699214964198 5.0
23.80736358 3.01852236502138 5.0
21.51760506 4.309382558169085 5.0
21.97158474 12.42684253022068 5.0
21.6721323 13.744021962850734 5.0
21.31664808 16.00641404908529 5.0
21.85519728 17.26477916775016 5.0
17.44240386 0.5168753318827797 5.0
17.62424622 19.127667776964177 5.0
17.892536760000002 21.43512796377574 5.0
16.004513279999998 10.650659102715963 5.0
15.519669900000002 12.79090689671873 5.0
18.23674902 1.7143985147686938 5.0
18.978939 4.099935422776336 5.0
18.5887443 6.161955973439642 5.0
18.27968982 8.543061332461274 5.0
17.72190672 16.755305983624236 5.0
17.67720654 14.113930130209456 5.0
23.294877059999997 1.742926888061251 5.0
20.42052726 3.5087818402569138 5.0
21.02939202 5.5484011542876415 5.0
20.95657158 11.527959706924467 5.0
20.34174282 13.80635583869791 5.0
19.8965004 15.854563769145079 5.0
21.01987944 18.28985709978386 5.0
18.98189118 19.110313459256727 5.0
19.31489112 21.291224367581673 5.0
17.25671472 11.349059712394324 5.0
16.96078104 12.714472637734247 5.0
19.61437338 1.396369574974966 5.0
19.18457772 7.415074952695502 5.0
18.99405774 9.673659714126893 5.0
19.10236398 16.883028449404847 5.0
19.18934892 14.712742633553852 5.0
19.03428492 13.086218060666592 5.0
24.09980832 0.4783173140069996 5.0
21.90311802 1.4819989660712787 5.0
20.639644620000002 2.2196703602455465 5.0
22.01052966 6.414766767491702 5.0
21.29195712 10.261913531825298 5.0
19.54665216 11.83183735167945 5.0
19.67341698 18.02250321040808 5.0
21.43458618 19.6721594950355 5.0
19.87553694 20.137826308315702 5.0
20.1292455 0.17092121415048467 5.0
18.5720451 10.909999901517638 5.0
20.51836668 8.06488789991486 5.0
20.3101038 9.369693526934624 5.0
22.99804878 21.445199666016673 5.0
21.63745164 0.03586433557754036 5.0
21.80790276 7.661643504919117 5.0
22.60141296 9.865486904500342 5.0
22.96748328 19.972185543768678 5.0
22.874385240000002 8.500870861095962 5.0
24.14760978 7.886740516101622 5.0
