N=95, ave_E=-6.822721684210526 
1
17.36495523693021 0 0
0 15.038492370761043 0
0 0 20
C
95
C
2.501421801879797 0.5898217015751447 9.19876629075798
1.7996345009344994 1.827793401234668 8.976751669401313
1.8309956100923952 14.368091419364886 9.228054366668157
0.36194297148990745 1.8412829288912407 9.008240936820396
2.4982440150714385 3.1116144564341677 8.85507469432564
2.5774108459966034 13.122122249462594 9.475566123002992
0.38421005359022303 14.317832777861803 8.876169446285996
17.045683169944013 0.5293504199030775 8.81704299658842
16.990514707156283 3.0528741052339745 9.140495859980536
3.955979912346019 3.0953728846737456 8.872072784311086
1.7452474611324338 4.383855872508181 8.849755148179117
1.8821527682203916 11.9012523233271 9.438818453645965
3.9878793351162596 13.131115267900308 9.84970753530854
16.95477762927868 13.077848927923071 8.910960500968436
15.553877230494574 3.0318202159149092 9.319892967956427
0.28590356900291375 4.37394550603585 8.964706260310908
4.731446718361612 1.8558101125213957 9.169417070639227
4.6522451575259725 4.348981608700386 8.987146184860041
2.4462012442263585 5.6779933334740225 8.90368434014733
2.468567306571525 10.607235170300225 9.775111600840038
4.6968557275296465 11.83982008199254 10.074290213425598
4.712154253093382 14.341262748975447 9.874409795575161
15.540332565409768 13.04855394478483 8.981765494504938
14.80483988634959 1.7579546426648536 9.41185385766186
14.821510243377043 4.289098332080016 9.466211059090138
16.93121338502217 5.620516215632974 9.24835424391696
6.049898309680775 1.8747736514009254 9.831486561151483
5.978684628254124 4.3598243616997046 9.596203646532793
3.890045177311395 5.667105464997592 9.096533174010982
1.7022466224792234 6.920638996562379 9.068467982272423
1.7454905705057508 9.387508169584908 9.660771930794056
3.8815016193348253 10.565804123818776 10.09917590631796
6.1810558165853084 11.840541929626335 10.335865137734004
6.132069277861929 14.428666466634311 10.189180181348814
14.821058754540884 11.901598208651627 9.613629745978301
14.774156010445934 14.20557043231407 8.68136399774776
13.357766071590484 1.7661656594992892 9.672633907258717
13.340644225726871 4.254885761936534 9.725340215055315
15.49240528895584 5.577070011173845 9.449396401730436
0.2323743579895527 6.892441823367201 9.145020531415511
6.806749883682378 0.671200999190281 10.16025897069012
6.489266407085583 3.168745688950689 10.212109259566592
6.374275673506631 5.476973805954059 10.454546046589225
4.4955264365126775 6.836197861900555 9.74135999770347
2.4278812164513974 8.138531301208461 9.435088656922542
0.31469466478574404 9.391042215292035 9.579083268130184
4.5576408813951765 9.279246063007799 10.110915594365462
6.809441451744102 10.489558967499018 10.555433990747442
6.94657250325014 13.143732562999375 10.310490291173
15.510864236372699 10.669569721177028 9.793821728665744
13.439989134637349 12.079428380935875 10.057169835022993
13.405866997596782 14.41361293577118 9.106010526340999
12.65370396150915 2.9591241437946505 9.99834910636832
12.680237613111178 5.49751638653252 10.157201760261081
14.799543575002327 6.818422363918316 9.87862874596723
16.93261994639636 8.107747507325513 9.501185546398322
8.273602382456346 0.7269306442178473 10.278878735336757
7.181259873277252 3.4193320873246797 11.420135388496266
5.785291121780432 6.716867424938566 10.391750944376806
7.182093391128625 4.994223162360259 11.614573971783024
3.8048527069190152 8.081249683768233 9.739586815654626
16.92457997212166 10.60956613661769 9.688898266741194
6.002526711794429 9.208595225849963 10.422567625501493
8.244811286673515 10.271380520184017 10.596461754705118
8.499746194506889 13.321412350359918 10.526818501131654
14.764466365423727 9.408336481518411 10.041027763957675
12.71479387403267 10.924261627968237 10.563443882071518
12.79307509224075 13.456833974158622 9.988443744578241
11.370659513918087 2.8713294253341473 10.621592024431806
11.302831998762636 5.411255594293834 10.671546842842268
13.373620275721802 6.790826730417969 10.121921551909999
15.486917963100971 8.099536490491078 9.85637225404384
9.086594856738945 1.7415927629654655 10.858892697933658
9.090658256264387 14.579442391143562 10.113361362708694
8.560349888283776 2.8907441189848 11.547437630761372
6.630808157221801 7.885734244455968 10.555372846538859
8.60416167034655 5.382592227835163 11.56712606592437
8.90141497409232 9.012207553980195 10.238034404004825
9.159041449987418 11.006446988774446 11.444531927719986
9.379750031048802 12.427840172181668 11.296379510328855
13.376207654052104 9.480927284192076 10.48487357404527
11.555370542773312 11.213466874750342 11.319797742215272
11.512861132353308 13.745843720539906 10.685793443441582
10.576299636604714 1.5200908088365264 10.7568430138124
10.763459124148348 4.0992975198686405 11.065254401893657
10.5340680654685 6.624380696858386 10.795608442052593
12.608450888161709 8.096152829707657 10.458703852772715
10.593056818408353 14.938591665942077 10.270012825092547
9.400935276437856 4.1463078470196395 11.564374576538235
8.188861400900127 7.778690255760892 10.542226841694003
9.052142785548876 6.586995004824673 10.927313067335504
10.314366651810857 9.098182614863836 10.613337556273404
10.47817027456082 10.25897376397814 11.54676504446698
10.86606864464337 12.591804854500074 11.30652944895326
11.177457021952002 7.941903013460761 10.606122539660873
