N=137, ave_E=-7.224302189781023 
1
21.299999999999997 0 0
0 17.21658502723464 0
0 0 10
C
137
C
2.4863702999999995 0.6208662109106383 10.0
3.905014199999999 0.6160972168580943 10.0
1.7814680999999999 1.8557584835005945 10.0
1.7710673099999998 16.608787926018177 10.0
4.6150709999999995 1.843672440811476 10.0
4.613111399999999 16.602004591517446 10.0
0.37155506999999993 1.843104293505577 10.0
2.4860081999999997 3.0664287426157344 10.0
2.4804063 15.37511630930665 10.0
0.34848716999999996 16.61293712300974 10.0
6.034396499999999 1.8430698603355224 10.0
3.9049928999999994 3.070509073267189 10.0
3.902436899999999 15.373050319103381 10.0
6.033800099999999 16.600369015939858 10.0
20.940413399999997 0.6378813618930542 10.0
1.7750184599999996 4.273345786194937 10.0
1.7696870699999998 14.144646977410192 10.0
20.938943699999996 15.38102159797099 10.0
6.743814299999999 0.6131807273544807 10.0
6.7434734999999995 3.0730054780961384 10.0
4.614538499999999 4.299756027626715 10.0
4.6130474999999995 14.141651291615451 10.0
6.743366999999998 15.370467831349297 10.0
19.537872299999997 0.6518319607406224 10.0
0.35525204999999993 4.276668587105194 10.0
2.4815138999999995 5.513990119842492 10.0
2.4811305 12.911853406535053 10.0
0.35000373 14.146902350048759 10.0
19.524133799999998 15.383552435969994 10.0
8.1638214 0.613995071826269 10.0
8.163012 3.0740212566127445 10.0
6.033224999999999 4.301133354428893 10.0
3.9028841999999995 5.5244233703689964 10.0
3.9031397999999995 12.911371342154291 10.0
6.033416699999999 14.14110036089458 10.0
8.165951399999999 15.371483609865903 10.0
18.845558399999998 1.9034484240260345 10.0
18.8178684 16.62345645646138 10.0
20.921882399999998 5.480899843420148 10.0
1.7647816799999998 6.739914273291762 10.0
1.7712888299999998 11.678526121524072 10.0
20.9402004 12.913953829908376 10.0
18.8129481 14.147367197844494 10.0
8.873686499999998 1.8437240905665577 10.0
8.876050799999998 16.601556960306738 10.0
8.872003799999998 4.302820579761563 10.0
6.742940999999999 5.532050317536062 10.0
4.610747099999999 6.757888388060195 10.0
4.614133799999999 11.680764277577612 10.0
6.745220099999999 12.911646807514726 10.0
8.877499199999999 14.141875107220805 10.0
17.4235278 1.8889348428480757 10.0
19.580216699999998 3.158399739831222 10.0
17.405124599999997 16.61908344386446 10.0
19.5131004 5.50491697953314 10.0
0.34079999999999994 6.731529796383499 10.0
2.4763593 7.979146846967084 10.0
2.4808748999999994 10.446868845260735 10.0
0.35179719 11.678681070789318 10.0
19.522919699999996 12.913454548942587 10.0
17.396093399999998 14.146058737382424 10.0
10.294076999999998 1.8438273900767208 10.0
10.295866199999999 16.601711909571982 10.0
10.291776599999999 4.302097483190419 10.0
8.162884199999999 5.532256916556388 10.0
6.0325434 6.760488092399307 10.0
3.8992631999999996 7.984914402951207 10.0
3.9017766 10.44795349011745 10.0
6.0344603999999995 11.680729844407558 10.0
8.1668673 12.912042788970354 10.0
10.296995099999998 14.142942535492494 10.0
16.703523899999997 0.634465591423651 10.0
16.6807542 3.0883626719404313 10.0
16.688975999999997 15.379007257522806 10.0
18.797143499999997 6.7284308110785975 10.0
20.932319399999997 7.968438131080144 10.0
1.7676358799999996 9.21089020615556 10.0
20.9405412 10.445457085288503 10.0
18.814098299999998 11.679782932231062 10.0
16.685504099999996 12.911991139215273 10.0
11.0061147 0.6147835914205163 10.0
11.002514999999997 3.071576501538878 10.0
11.0062638 15.373084752273437 10.0
11.001769499999998 5.53149938681519 10.0
8.873217899999998 6.761899852371541 10.0
6.742855799999999 7.991301755996312 10.0
4.610640599999999 9.218827051853115 10.0
6.744538499999999 10.45150010663306 10.0
8.8771797 11.682055521454656 10.0
11.0074353 12.910372780222712 10.0
15.274016999999999 0.6268506958661051 10.0
15.263622599999998 3.092890633802594 10.0
15.269586599999998 15.374634244925886 10.0
17.3958378 6.73800323235374 10.0
19.514293199999997 7.969763808127241 10.0
0.34812507 9.208979165217537 10.0
19.524091199999997 10.445422652118447 10.0
17.395624799999997 11.679920664911279 10.0
15.265731299999999 12.909167619270805 10.0
12.4271655 0.6159784224214064 10.0
12.422671199999998 3.0724028976201847 10.0
12.426973799999999 15.372964236178246 10.0
12.420967199999998 5.530982889264373 10.0
10.292649899999999 6.761641603596132 10.0
8.163139799999998 7.991473921846584 10.0
6.0327563999999985 9.219446848914096 10.0
8.1663135 10.451913304673713 10.0
10.2970803 11.681848922434328 10.0
12.425759699999999 12.90944308463124 10.0
14.5565904 1.8543122903583067 10.0
14.560424399999997 16.60546512510792 10.0
14.552841599999997 4.304008524128442 10.0
14.556718199999997 14.14060107992879 10.0
16.666057199999997 5.533875275548949 10.0
16.686483899999995 7.980782422544672 10.0
18.809966099999997 9.208979165217537 10.0
16.6851207 10.446317914539863 10.0
14.555269799999998 11.676993845456648 10.0
13.135688699999998 1.846031112960207 10.0
13.1379465 16.603622950510005 10.0
13.131577799999999 4.30121943735403 10.0
13.136157299999997 14.140997061384416 10.0
13.1315352 6.75804333732544 10.0
11.004091199999998 7.991060723805931 10.0
8.874772799999999 9.221323456682065 10.0
11.006412899999999 10.449330816919629 10.0
13.135539599999998 11.678267872748664 10.0
15.256274099999999 5.518087667078975 10.0
15.264304199999998 7.983795324924437 10.0
17.396625899999997 9.21343826073959 10.0
15.264687599999997 10.446008016009372 10.0
14.548815899999997 6.752447947191589 10.0
12.424034399999998 7.988116687766274 10.0
10.296079199999998 9.22097912498152 10.0
12.425397599999998 10.448125655967722 10.0
14.554460399999998 9.215659200208105 10.0
13.135305299999999 9.217432508465908 10.0
