N=92, ave_E=-7.141506304347827 
1
17.04 0 0
0 14.757072880486835 0
0 0 10
C
92
C
2.46754536 0.6071399195708534 10.0
3.89686056 0.6108173821326708 10.0
1.75576752 1.8348206565953307 10.0
1.7545065599999998 14.131402504499952 10.0
4.609865279999999 1.8417564808491593 10.0
4.612302 14.14130450040276 10.0
0.32701804799999995 1.8308067327718383 10.0
2.4726403199999996 3.0692202889022933 10.0
2.47206096 12.908631445622815 10.0
0.319830576 14.120615084224319 10.0
6.0378513599999994 1.8440733412913959 10.0
3.89885424 3.0706222108259396 10.0
3.9022451999999994 12.912822454320873 10.0
6.043406399999999 14.14431494327038 10.0
16.642473839999997 0.5914693838790646 10.0
16.66299 3.060056146643511 10.0
1.76473056 4.3000929807908195 10.0
1.7647987199999997 11.681905491213705 10.0
16.652254799999998 12.877154609168736 10.0
6.7545196800000005 0.615613430818829 10.0
6.7470902399999995 3.075905242917154 10.0
4.611603359999999 4.303900305593985 10.0
4.61710728 11.686952410138831 10.0
6.75881376 12.917485689351105 10.0
15.19910064 0.5884943579863584 10.0
15.24187104 3.05819675546057 10.0
0.341018112 4.2985730022841295 10.0
2.47817832 5.533725245307997 10.0
2.4807854399999996 10.455740305574055 10.0
0.338255928 11.673479202598948 10.0
15.2125452 12.874690177997696 10.0
8.186407919999999 0.6199697187331488 10.0
8.16865224 3.0804799355101045 10.0
6.034664879999999 4.3052874704447515 10.0
3.90103536 5.53534852332485 10.0
3.90534648 10.458367064546781 10.0
6.04422432 11.68811821889639 10.0
8.19186072 12.920038662959431 10.0
14.51153664 1.8183074920420659 10.0
14.493252720000001 14.095144376432598 10.0
14.53771008 4.299325613001034 10.0
16.67370816 5.532707007279243 10.0
1.7679851999999998 6.76568996058968 10.0
1.77159768 9.227287773637928 10.0
16.682347439999997 10.46165789179913 10.0
8.888251440000001 1.8536359245179512 10.0
8.909364 14.144654355946631 10.0
8.87415936 4.312695521030755 10.0
6.743511839999999 5.538860706670406 10.0
4.61254056 6.7677411937200675 10.0
4.6153692 9.22861591019717 10.0
6.7531564799999995 10.461244693758475 10.0
8.9009292 11.69717906164501 10.0
13.10551512 1.8595535107430268 10.0
13.1166252 4.308430726968295 10.0
15.2536116 5.534581155535065 10.0
0.346760592 6.76661965618115 10.0
2.4802742399999995 7.997152935393425 10.0
0.35142273599999996 9.23072617161908 10.0
15.27220224 10.44687130477288 10.0
10.31146632 1.8646447008867943 10.0
10.35321432 14.148328867093872 10.0
10.2898596 4.314245013683207 10.0
8.162586 5.541841635392265 10.0
6.0345455999999995 6.768907002477626 10.0
3.90255192 7.996975850518859 10.0
6.0387033599999995 9.229545605788642 10.0
8.178211679999999 10.4631926273787 10.0
10.33542456 11.696175580689136 10.0
12.3981336 3.079786353084722 10.0
12.415344 5.542948415858301 10.0
14.54467944 6.77055979464024 10.0
16.67665608 8.000812689467786 10.0
14.545633679999998 9.241454563603195 10.0
11.02014288 0.6362364401693094 10.0
11.00039352 3.086456550026702 10.0
11.075897759999998 12.921573398539001 10.0
10.9996608 5.545161976790375 10.0
8.87407416 6.77449993309933 10.0
6.746016719999999 8.0006503616661 10.0
8.88129912 9.236407644678069 10.0
11.02068816 10.475396726650864 10.0
13.13058096 6.773142282394326 10.0
15.25468512 8.003218092347305 10.0
13.14409368 9.24315162698445 10.0
12.52838736 12.911907515802282 10.0
10.292415599999998 6.77571001307553 10.0
8.16670968 8.003557505023556 10.0
10.299913199999999 9.240628167521889 10.0
12.427101599999999 10.450634358357405 10.0
12.4278684 8.006582704964057 10.0
11.00669832 8.008914322479173 10.0
