N=138, ave_E=-6.364049202898551 
1
20.109793140331796 0 0
0 16.254552276085317 0
0 0 20
C
138
C
2.1792982826177565 0.08088752849148337 9.980400032601253
3.5850532622995104 0.3998424805289675 9.592139406731299
1.0710355167781873 0.8077862299123358 9.53424586140899
1.9554581861520375 15.277930011681283 10.969518618582477
3.894784296246901 1.1010443602565567 8.316328812064949
4.664969263728468 -0.22725001900626599 10.363335811836869
19.839557740112017 0.3065332231880998 9.910157374871645
1.1346950779432217 2.343305019777288 9.296327182002248
0.6780680380436496 14.509658598352111 10.944253920721668
3.0252770604452346 15.061549411782035 11.952575942969286
5.012868685056208 0.7063074345975077 7.573852590402051
3.4326411400889363 2.455835285184626 8.082998564332481
4.424074051700433 15.335015999274894 11.650022688990383
5.614453146849234 15.285179541996415 9.60516828679405
19.61489113114823 15.252166546323688 10.435164594095856
19.024306726202965 1.454780803254408 10.268168340074173
2.0470965025132153 2.903371873002083 8.235776344894383
1.2323120358050201 3.7507867013635154 10.423608543953243
19.70997023311572 2.6351392513421237 9.704414364489434
0.5933052599571511 13.149721482173433 11.44524268278672
6.277010501443746 1.319993179415426 7.668510236423163
4.4168948555493355 3.6345178889326766 7.960130560610285
5.4909991267607365 14.297097818237742 11.619546439104472
6.287286605738455 14.148433683120667 10.289637668525401
18.218527424863012 14.68239572539007 10.610261412678298
18.32683877071684 1.5095716480666366 11.537804378536869
2.227199809878027 4.4331365513613 8.291177408813379
19.761853499417775 3.916745680102346 10.564150506717088
1.651828463443424 4.923503884426243 9.540703654135744
19.94453086030455 12.06542906349261 10.81277552669713
6.598163897894844 2.3888827843594305 8.590728355647393
5.835721200772304 3.649195749637982 8.447580616871004
3.6090241357227857 4.852504000084302 7.950160634997051
6.329798708437116 12.610021582950571 9.643971690459196
7.774767784742518 14.581812555905653 10.320283860325176
17.812812348256816 13.339753452833145 11.262555125385113
17.063762773365738 15.595560217708266 10.978752129235644
18.28503051077809 2.7871680787803492 12.314042393753677
17.410757254002164 0.45528838379792214 11.907201451968149
18.944350188677006 3.9481169659951907 11.845625831845496
19.454012786025576 5.278324506060908 9.857362086965196
0.5844629839133472 5.848209108860461 9.3233479463063
0.4943610557480906 11.082288723625863 9.931400114104388
18.44653225948809 12.065477827149438 10.953544078679453
7.422987173338693 2.0844025111238005 9.781454698773523
6.418100810116314 5.001314426171863 8.647432307572668
4.202222813776293 6.191700307558695 8.20943534824578
5.5376337370531665 11.969982332527435 8.536856768953154
7.811065961360817 12.41681997459702 9.32516066005416
8.227278349986264 15.927006793169921 10.307141685653182
8.531841167096589 13.525055348780517 9.734777319766103
16.420390161427104 13.478242238225393 11.795039788819256
15.727064823327884 14.811879488821363 11.498661091044
17.223052444830305 2.849471777654584 13.286619966785672
16.48088041919322 0.5542200907710878 12.965146513063459
18.376208312876354 5.341798532699022 11.960619860225417
18.46147383579136 6.071189056983798 10.616605910795808
0.5809819787207557 6.774019642849452 8.234076925755765
19.73355902046933 10.348411942912888 9.032294095165383
1.9817034771794846 10.901928211570421 9.81946504017398
17.626676102949908 10.924408257368247 10.359993620864248
7.270353843403575 0.7638956878564502 10.398230551483191
8.442674344312358 2.9774763768287564 10.25797182524245
7.563594846975893 5.263922972744297 9.431714240045611
5.67908602200226 6.241943128644075 8.28251037120642
3.3298197677624195 7.481255212381924 8.029580156075205
4.204575659573712 11.363427459793037 8.726511944823102
6.533088607292731 11.345417415871134 7.472510562435705
7.960702932118025 11.716281280602296 8.027200969281136
9.672931159258436 -0.09167242392666597 9.996091335981177
9.859288612289891 13.672841738074686 9.360338636223585
14.54672051495611 14.822412438696267 10.633770044095865
15.3353662725405 16.02321748809207 12.50075190978335
16.10929166154617 1.9159890949912808 13.317775984327024
17.201816503274117 6.559833407507475 10.027360648131776
1.9324767145512662 6.78373986511055 7.414730311722636
0.9482410979046932 8.150308838617871 8.711726998317111
19.385941136245552 6.988449696475569 7.592546200926865
18.302847787500422 10.206038319526657 9.253275230490551
0.047531909262351034 9.190340111450915 8.208755580590331
2.776780346610155 9.612730906897268 9.600636502424397
2.984434070577221 12.010846276949513 9.336433473673669
16.33212827933419 10.272161838185772 10.918705986337748
8.14527061355999 4.428520258514893 10.46093911769825
9.785284573533469 2.4783640946392804 10.808753568069061
7.715986859393328 6.725467295200785 9.724070979192799
6.407784486235323 7.542128510655863 8.001879624115706
2.3224598999837784 8.367063293219468 9.002044434497957
4.28449197751339 8.83127705167219 7.888868251397501
4.022340714136026 9.918105180508082 8.876060829021622
6.557622554923936 9.826250705595925 7.072240707986168
8.769458482842749 10.525489035408562 7.898668235096878
10.357729945066156 1.0967531584556702 10.548232614118678
10.441949758737865 15.004918551652153 9.442647169837397
10.759684490355108 12.628486754336205 9.687986646149444
13.921969571465421 13.594576068865335 9.971449758471191
13.776817084578507 16.085976314430035 10.736698196591597
14.053206081499226 0.9143185655297991 12.03737695798641
14.824497087603513 2.2023292878867995 12.71487872124942
17.042929027672354 8.074562625011314 9.674787824172832
16.058554653453115 6.447075578368271 10.902901388348592
18.900028204595714 8.434080812253768 7.7612418740871725
17.777499551502395 8.92038450724969 8.693259977010776
16.20191736875054 8.760423458300734 10.684695970949832
15.053668290230734 11.008379274426504 11.26465107565608
9.05924060199493 5.309191900833194 11.20607776267832
10.739695355973616 3.479400696561995 11.436802234398247
8.780699857208194 6.67275378216944 10.769157102139225
8.019061551811268 7.936463948873693 8.455681181431757
5.661872039074137 8.634141841667827 7.46429670326571
7.9546096647965046 9.3638737115504 7.6034224834140325
10.110761575509738 10.372257371101906 8.33774149321156
11.755501336871196 0.9281674440690237 10.74287275279524
11.884545879452707 15.076324799800995 9.420271484512234
11.093064641035527 11.446423203714728 8.789673689475126
14.345703022725353 12.150180299060118 10.197302561993734
12.702592154608261 13.89463510388187 9.194645270208177
12.48238991972163 16.179082389867453 10.085594077281808
12.479795756406526 1.6546484034963809 11.7488155882488
14.456749300446264 3.60738904118389 12.430962430490705
15.529003470688757 7.7025771961731015 11.51962059375364
13.600997163152584 10.164735502193125 11.420544457972117
10.426042912363862 4.914011225897008 11.432836923074799
12.096462879565522 3.098377736658279 11.894569103037739
9.847866249786183 7.475517355428465 10.324985586608687
9.564438825266345 8.111102858527953 9.11511245452078
10.526149462616432 9.024901278384919 8.61304739366793
12.260035936968979 10.557981885408458 9.272648608670814
13.16372982110921 11.056411476402337 10.305725503037664
13.119126299923956 4.094781791182308 12.277334940359491
14.13706391889441 7.773203225812692 11.960110034483836
13.29577072286863 8.731604137115234 11.364463626397669
11.496185554326619 5.934130672191847 11.437595296662934
11.210123746905397 7.265866140171517 10.810056456075337
11.919416260758043 9.071503079760454 9.246760790459177
12.767003822036745 5.580707942052924 12.072101755718869
13.568962262680037 6.638895549778354 12.66129037107828
12.255953648961494 8.255752119232836 10.418453639232766
