N=92, ave_E=-6.327032826086957 
1
17.04 0 0
0 14.757072880486835 0
0 0 10
C
92
C
2.29455528 0.7140681939555731 5.0
3.88968672 0.7873591964165109 5.0
1.674807072 1.9650075535469853 5.0
1.40459016 14.124673279266453 5.0
4.7156496 1.9666455886367193 5.0
4.8904459199999994 14.313312941897715 5.0
3.4682364 13.72993633678631 5.0
0.251614344 1.980782864456226 5.0
2.47257216 3.2210558117696224 5.0
2.05120704 12.810821566570949 5.0
-0.059883160799999995 14.187685980466131 5.0
6.225257279999999 1.9076025400418914 5.0
4.0108070399999995 3.2186061376714616 5.0
6.26674968 14.265942737951352 5.0
3.6724778399999995 12.28521890178665 5.0
16.51700832 0.7820171360337747 5.0
16.589394239999997 3.1861848485530317 5.0
1.673070696 4.422429114970056 5.0
1.424443464 11.520330300245256 5.0
15.502957919999998 13.129367741769137 5.0
6.9536831999999995 0.6885886319201244 5.0
6.94003416 3.1138456772928853 5.0
4.86946968 4.393785636509031 5.0
6.9040968 13.042522367867472 5.0
4.554297839999999 11.236079562421319 5.0
15.15951672 0.8024468277295206 5.0
15.17563656 3.183764688600632 5.0
0.230012736 4.3885763897822185 5.0
2.1946668 5.712182527651724 5.0
2.14802832 10.300348328142528 5.0
14.686435199999998 11.79515126849856 5.0
14.545633679999998 14.311866748755428 5.0
8.3438064 0.6859648243619739 5.0
6.27833688 4.34009940536982 5.0
4.609865279999999 5.773203024012537 5.0
8.3659584 13.006219968581474 5.0
6.086398319999999 11.746216814826866 5.0
3.5142444 10.169600662421415 5.0
14.46852768 1.9738617972752774 5.0
14.47621272 4.382496475755459 5.0
16.50390456 5.593166734870598 5.0
1.35645216 6.821368396567756 5.0
3.41640072 6.376088479471947 5.0
1.5142255199999999 9.086948010544498 5.0
15.3031128 10.528846844623985 5.0
13.23989256 11.77543581913023 5.0
13.12652544 14.225183702655446 5.0
9.008741279999999 1.8774685972199376 5.0
9.08871 14.22857782941796 5.0
6.9901658399999995 5.5725953752752 5.0
9.0650244 11.787979331078645 5.0
6.9479748 10.554243767051304 5.0
3.9441295199999997 8.926125430292952 5.0
13.080568559999998 1.9490994289818206 5.0
15.15033216 5.587854188633623 5.0
13.107542879999999 4.3746752271288 5.0
0.0737126544 6.788105954295139 5.0
3.17998776 7.822665305654549 5.0
0.191323416 9.142714988959858 5.0
14.53789752 9.295406422054254 5.0
16.65755424 10.405684314363443 5.0
12.53338008 10.537922444445485 5.0
12.50887656 12.978594728149202 5.0
12.395475359999999 0.6901263189142712 5.0
10.37805864 1.9606394599743615 5.0
10.540978079999999 14.254387949885931 5.0
8.3415912 5.564965968595988 5.0
6.40710816 6.844743600010448 5.0
8.3681736 10.573605046670503 5.0
10.46666664 11.753506808829828 5.0
6.4523664 9.243063084547169 5.0
5.19017952 8.75630103558431 5.0
12.40788048 3.155091695993846 5.0
14.467454159999999 6.820187830737318 5.0
12.42849888 5.591691027582549 5.0
16.48453008 7.99182563208357 5.0
15.163112159999999 8.04371150033136 5.0
13.18703448 9.308628759355171 5.0
11.168442 10.539353880514891 5.0
11.055108959999998 3.1497643926839904 5.0
8.99705184 4.35649451334004 5.0
9.07988328 6.810005450449782 5.0
7.161912 8.039520491633304 5.0
9.1058352 9.301751963392864 5.0
13.124276159999999 6.8252937779539655 5.0
11.075250239999999 5.5834565809152386 5.0
12.470570639999998 8.06127241705914 5.0
10.463394959999999 9.303375241409716 5.0
10.368158399999999 4.346267861833863 5.0
10.418801279999998 6.807496748060099 5.0
8.45144808 8.044567410558429 5.0
11.12427432 8.060254179030387 5.0
