N=139, ave_E=-6.735164460431655 
1
21.299999999999997 0 0
0 17.21658502723464 0
0 0 10
C
139
C
2.5713147 0.6539186108459234 10.0
3.933811799999999 0.7416422765351921 10.0
1.7360969699999995 2.0333303414714927 10.0
1.8601226099999997 16.490441120540964 10.0
4.676031599999999 1.9490551577631792 10.0
4.621354499999999 16.802715539764947 10.0
21.797354999999996 1.1218877734466963 10.0
2.6194526999999996 3.280603060354533 10.0
0.3732569399999999 3.2107553748990423 10.0
0.32840339999999996 16.245345816093252 10.0
6.085686899999999 1.9160165310959159 10.0
4.020524099999999 3.1764082877697093 10.0
3.9750699 15.527310920947405 10.0
6.0048108 16.786841848369836 10.0
20.7982998 17.428004691369082 10.0
1.9788253799999997 4.523674932490929 10.0
20.470301099999997 2.6951186533333646 10.0
0.61401723 4.483164307921846 10.0
20.907526199999996 15.15049152445632 10.0
6.7743158999999995 0.7107006299242459 10.0
6.7800669 3.095610854236897 10.0
5.207913899999999 14.783588880940922 10.0
6.529855799999999 15.497681178115533 10.0
19.339484099999996 0.4883501559560133 10.0
2.5910171999999996 5.6539437395288825 10.0
19.214154899999997 3.0301878311334054 10.0
21.009318899999997 5.590431757363414 10.0
0.29397620999999996 13.982501179623695 10.0
19.428177299999998 15.240224365618268 10.0
8.204781299999999 0.676725421031501 10.0
8.196410399999998 3.0897916484976915 10.0
6.0850905 4.3044561553391505 10.0
5.2008209999999995 13.439025240068979 10.0
8.2044192 15.489933714853278 10.0
7.2572294999999984 14.098420446612066 10.0
18.567018299999997 1.8066395664178942 10.0
18.660929999999997 16.515095270299962 10.0
3.9690206999999997 5.628773092219065 10.0
1.8173159999999997 6.864149150848287 10.0
18.6926244 4.30838153672536 10.0
19.5045804 5.528314318585152 10.0
0.36886062 6.837205195280665 10.0
20.893361699999996 12.812307111907582 10.0
1.7378968199999996 14.000285911956826 10.0
18.732327599999998 14.062541083415308 10.0
8.905253099999998 1.875092708486179 10.0
8.915647499999999 16.677568183201977 10.0
8.8947522 4.29991097689196 10.0
6.764581799999998 5.5190173626704455 10.0
3.9531948 12.693822573750154 10.0
6.523337999999999 12.707716357867133 10.0
9.0023811 14.115413216033945 10.0
8.219627399999998 12.732249991530942 10.0
17.2288884 1.8243382158258914 10.0
17.274427799999998 16.54928740816405 10.0
4.680185099999999 6.764878321581253 10.0
2.5445192999999997 8.031622998130096 10.0
17.2999239 4.336444570319752 10.0
18.786727799999998 6.7705253614701855 10.0
20.928570599999997 8.015887039415203 10.0
0.30124802999999994 11.610641126761687 10.0
19.455760799999997 12.836771879231282 10.0
2.4839420999999997 12.795176609805484 10.0
17.3242059 14.086093371732565 10.0
10.312501499999998 1.8650554394153012 10.0
10.325537099999998 16.633820840647775 10.0
10.305642899999999 4.300771806143322 10.0
8.187996899999998 5.513215373516267 10.0
6.075271199999999 6.730359068601647 10.0
4.5844203 11.425252939188423 10.0
5.989219199999999 11.42764604450721 10.0
10.381619999999998 14.11868436718912 10.0
8.929811999999998 11.547490692881789 10.0
16.553571899999998 0.5957661515994329 10.0
16.565606399999997 3.0852981198055835 10.0
16.600154999999997 15.331214017487202 10.0
3.9584132999999997 7.973775272438587 10.0
16.627930199999998 5.556549518029816 10.0
17.3564541 6.776430650134526 10.0
19.496188199999995 7.997103745150491 10.0
0.29000162999999995 9.234993425193688 10.0
20.9006463 10.43381867381009 10.0
1.7310105299999996 11.577774665944697 10.0
18.762658799999997 11.642577891987207 10.0
16.638707999999998 12.87309887363875 10.0
11.021535899999998 0.6324891274625244 10.0
11.0100552 3.0830599637520435 10.0
11.051867099999997 15.365888219732051 10.0
11.011503599999998 5.521238302138959 10.0
8.8986288 6.722921503869881 10.0
6.779257499999998 7.917563122324666 10.0
3.8831816999999993 10.282123343135126 10.0
6.761514599999999 10.2938650541237 10.0
11.063496899999999 12.872634025843013 10.0
8.2105749 10.329365652449857 10.0
10.343897699999998 11.60127530450687 10.0
15.184216199999998 0.6060513394947029 10.0
15.190116299999998 3.092288053326641 10.0
15.214462199999998 15.341543968503542 10.0
4.629682799999999 9.115957956315388 10.0
15.224643599999997 5.55353661565005 10.0
16.657451999999996 7.995640335423175 10.0
18.779847899999996 9.216451163119357 10.0
19.479126899999997 10.434128572340581 10.0
2.4456021 10.329968232925811 10.0
17.3538981 11.648173282121059 10.0
15.242897699999997 12.877747351596103 10.0
12.412617599999999 0.6242113933814301 10.0
12.407633399999998 3.0840757422686496 10.0
12.435898499999997 15.365010173895662 10.0
12.4168776 5.529140714666459 10.0
10.3129488 6.7304795846968375 10.0
8.2001166 7.923571710499171 10.0
6.066282599999999 9.107487396481988 10.0
12.451703099999998 12.877437453065612 10.0
8.912750699999998 9.138563332456147 10.0
11.044901999999999 10.395580638464603 10.0
14.488281299999997 1.854036824997871 10.0
14.501359499999998 16.59138195855564 10.0
14.506982699999998 4.31952066723798 10.0
14.531477699999998 14.114552386782583 10.0
14.533053899999999 6.7660490493631045 10.0
15.246305699999999 7.991697737451938 10.0
17.364271199999997 9.214798370956743 10.0
16.657004699999998 10.431425568491305 10.0
14.547985199999998 11.65208144692224 10.0
13.106039099999998 1.8548976542492328 10.0
13.120693499999998 16.596443634553648 10.0
13.112407799999998 4.314562290750137 10.0
13.144954199999997 14.117186524291752 10.0
13.128553199999999 6.756941475883697 10.0
11.026860899999997 7.954991978173875 10.0
13.151812799999998 11.64853483040663 10.0
10.330159199999999 9.159670865699537 10.0
12.446314199999998 10.41209134350572 10.0
14.547474 9.205484198457007 10.0
15.251779799999998 10.429841642668798 10.0
12.433278599999998 7.967129670618074 10.0
13.1445282 9.197116938133773 10.0
