N=250, ave_E=-6.598094 
1
29.82 0 0
0 22.13560932073025 0
0 0 10
C
250
C
2.474052084 0.5840502654883998 10.0
3.9009032999999995 0.5695248786521365 10.0
1.755849312 1.8032154336071917 10.0
1.771108206 21.507622084301133 10.0
4.6102018199999995 1.7533815363434317 10.0
4.61461518 21.491618038762244 10.0
0.339974838 1.807525236741938 10.0
2.450971404 2.994925805485482 10.0
2.482884768 20.282460379617355 10.0
0.353942526 21.509193712562904 10.0
6.08333964 1.6961720540540044 10.0
3.85817124 2.9763097580467477 10.0
3.90644982 20.278586647986227 10.0
6.05223738 21.48055023410188 10.0
29.460669 0.5960234165699827 10.0
29.44221042 3.016508024573194 10.0
1.751245104 4.228100600743365 10.0
1.773505734 19.0561476232489 10.0
29.470509600000003 20.282770278147844 10.0
6.7593590400000005 0.5271661766559872 10.0
6.8063255400000005 2.847480511800098 10.0
4.5125711399999995 4.195317763339363 10.0
4.61637456 19.052805146241468 10.0
6.73144752 20.265836537017485 10.0
28.04040204 0.5972563700091474 10.0
28.01296764 3.0229716224948473 10.0
0.298802364 4.2196669335921655 10.0
2.5257808379999998 5.3956211787559605 10.0
2.474066994 17.838866195483302 10.0
0.36657726 19.052384569664376 10.0
28.047201 20.28082234452762 10.0
8.16883116 0.5520023303138465 10.0
8.19859152 2.9975599429946493 10.0
5.968890480000001 3.8282650895830135 10.0
3.84227718 5.44832606454862 10.0
5.92049262 5.201359071357232 10.0
3.90036654 17.833487242418364 10.0
6.04737672 19.049064228266268 10.0
27.32439402 1.817774023857436 10.0
27.33500994 21.50999059449845 10.0
27.27629436 4.242643696067084 10.0
29.296420440000002 5.357215896584494 10.0
2.096679984 6.629260821809577 10.0
1.782660474 16.608325537734586 10.0
29.46341244 17.837715143798626 10.0
27.33635184 19.050901483839887 10.0
8.89503762 1.7982681249240084 10.0
8.8897893 21.49940977324314 10.0
8.93114964 4.2879110171279775 10.0
4.57295664 6.807341798794853 10.0
7.09945614 5.870407863076304 10.0
6.0124575 6.920609711689029 10.0
4.60826352 16.60485024707123 10.0
6.74910096 17.839375314497676 10.0
25.90988232 1.8262962334459174 10.0
25.91420622 21.51302317297539 10.0
25.902457140000003 4.267147815585132 10.0
27.93829836 5.4093673921441345 10.0
-0.11681656979999999 6.60021890238078 10.0
2.529544122 8.154714202538383 10.0
0.99677823 7.438228800044985 10.0
2.464634928 15.377408574627417 10.0
28.05203184 17.814826923760986 10.0
25.91465352 19.05858254027418 10.0
10.2958023 1.810925266333602 10.0
10.288526220000001 21.48929379978357 10.0
10.3125015 4.271419988184033 10.0
8.361528 5.586740029631145 10.0
3.9253557 8.069956954449307 10.0
6.77233074 8.085451880973817 10.0
3.89640048 15.374663759071648 10.0
6.03389808 16.607373706533796 10.0
8.16239004 17.816907671037136 10.0
25.20380436 0.6062412138324318 10.0
25.199450640000002 3.0563742569598293 10.0
25.20466914 20.287463027323838 10.0
25.19930154 5.49230952026891 10.0
27.25953552 6.717161326422198 10.0
29.35817766 8.167154414976633 10.0
1.77680979 9.400528430718401 10.0
1.7623291980000002 14.171349900787432 10.0
27.348309659999998 16.605514315350852 10.0
25.206965280000002 17.84278419833307 10.0
11.00024016 0.5841343808038185 10.0
11.00065764 3.0389313968150935 10.0
10.98694044 20.279162173828567 10.0
11.00310288 5.508689871166251 10.0
8.98771818 6.775267300889116 10.0
4.6475364599999995 9.280597699418685 10.0
8.20697094 8.036908489733456 10.0
6.06795252 9.28863292560211 10.0
4.61228922 14.152202598725 10.0
6.74650662 15.377984100469758 10.0
8.88588288 16.60352211051199 10.0
23.786698320000003 0.6097430672269712 10.0
23.78857698 3.061266226619711 10.0
23.78314974 20.291270352127007 10.0
23.79436206 5.508313565807798 10.0
27.947542560000002 8.031352451793953 10.0
0.30572358600000005 9.434395912979118 10.0
2.491720434 10.55839788306716 10.0
2.4796403519999997 12.951655691605872 10.0
0.342581106 14.151737750929263 10.0
28.0284144 15.370723620612559 10.0
25.92243654 16.618596460459404 10.0
23.78106234 17.852368917168945 10.0
12.409831559999999 0.5768694738247548 10.0
12.38970306 3.0275536936242387 10.0
10.30030512 19.04946266923404 10.0
12.411054179999999 20.27533271341608 10.0
12.3794748 5.516437334428506 10.0
10.30054368 6.751382978432048 10.0
3.92526624 10.518598057508486 10.0
8.86879602 9.244472385007253 10.0
6.75619812 10.490441562452517 10.0
3.90877578 12.938440732841398 10.0
6.03589602 14.151848428975867 10.0
8.17193244 15.376146844896136 10.0
10.29121002 16.598364513540258 10.0
23.07996432 1.8372245837675618 10.0
23.075878980000002 21.518557075305573 10.0
23.08401984 4.28224430114187 10.0
23.07200238 19.07038082004213 10.0
23.08950672 6.698080431187728 10.0
27.27492264 9.241107772390503 10.0
29.43072972 10.561607546418665 10.0
1.77487149 11.756753364863535 10.0
29.4344274 12.951655691605872 10.0
27.339393480000002 14.152269005552961 10.0
25.21910202 15.413002634415152 10.0
23.07614736 16.65144570469137 10.0
13.1124504 1.778394774875857 10.0
13.1212473 21.488032070052284 10.0
13.073505480000001 4.237286878611467 10.0
10.98968388 17.817195433958307 10.0
13.12157532 19.046407955147778 10.0
12.998776560000001 6.814004617200393 10.0
10.92431844 7.931365904492215 10.0
4.62699048 11.716665776383692 10.0
10.23977052 9.219392739646866 10.0
8.15943786 10.479440164620115 10.0
6.04487184 11.710711297476413 10.0
6.74716266 12.928457573037749 10.0
8.8772649 14.15136144557081 10.0
11.00325198 15.364370700737508 10.0
21.66515442 1.8346391445989005 10.0
21.657788880000002 21.518645617742855 10.0
21.66697344 4.271951242807731 10.0
21.646427459999998 19.073546212174993 10.0
21.66196368 6.661158234840751 10.0
23.78288136 7.932494820567571 10.0
25.89697026 9.227494372658255 10.0
28.00751058 10.50500679338556 10.0
0.319616724 11.756841907300817 10.0
28.029756300000003 12.93671415531438 10.0
25.940418 14.169092068636717 10.0
23.80250292 15.4417789265321 10.0
21.63658686 16.65972442257732 10.0
14.53808496 1.731380954239558 10.0
14.548462319999999 21.47446294153868 10.0
14.46908148 4.1264981539612124 10.0
12.41111382 17.819364723671736 10.0
14.54637492 19.040342798193898 10.0
14.39256336 6.913260689394547 10.0
12.22691568 7.924835899742599 10.0
10.915014600000001 10.50113306175443 10.0
8.8571364 11.70028542548635 10.0
8.16107796 12.9252036384676 10.0
10.29741258 14.148328867093872 10.0
12.4097421 15.36443710756547 10.0
20.953559759999997 0.6048378162014975 10.0
20.96384766 3.0494458112424407 10.0
20.944434840000003 20.29171306431342 10.0
20.96894688 5.476283339120702 10.0
20.93077728 17.860536957008296 10.0
20.94908676 7.822835011992675 10.0
25.192114919999998 7.991619033063243 10.0
23.03070168 9.149045773225586 10.0
25.2059514 10.468881478974126 10.0
27.318251099999998 11.708896177512116 10.0
25.25327574 12.973769165317282 10.0
23.126632620000002 14.271247905651887 10.0
20.94046878 15.464401519257889 10.0
15.251647740000001 0.5352146842050046 10.0
15.23402412 2.8878558632011098 10.0
15.259728959999999 20.260856024920322 10.0
14.7810285 5.6614255754792895 10.0
15.92453604 4.852280512369316 10.0
13.121008739999999 16.59546474871924 10.0
15.255226139999998 17.812303464298424 10.0
15.378263460000001 7.904028426981112 10.0
12.69207786 9.140147258278652 10.0
12.303284699999999 10.661660500548367 10.0
10.2419772 11.694043183657904 10.0
10.963501919999999 12.91037278022271 10.0
13.14710124 14.164288641414117 10.0
19.53797454 0.5926831531234845 10.0
19.56001152 3.039661871922678 10.0
19.52562906 20.285559364922257 10.0
19.561472700000003 5.500654644982825 10.0
19.502429099999997 17.85345356202566 10.0
19.52488356 7.8979632700272315 10.0
21.57545586 8.966426996329561 10.0
23.79597234 10.507508117238801 10.0
25.93015992 11.711950891598375 10.0
23.896674479999998 13.026274830626054 10.0
21.668374980000003 14.310870646335994 10.0
19.50099774 15.416677145562394 10.0
16.69374294 0.5408481967771305 10.0
16.692251940000002 2.8960239030404593 10.0
16.6924905 20.265238875565828 10.0
17.46584238 4.144339455073721 10.0
17.06139372 5.632295113613208 10.0
14.549088540000001 16.599205666694445 10.0
16.6740021 17.834704700931006 10.0
16.7600328 7.943806116930466 10.0
15.0316656 9.167152701649943 10.0
13.83788154 9.92514237161971 10.0
13.11248022 11.91369483494751 10.0
14.56671216 14.18319245177402 10.0
18.83317884 1.7934425620920893 10.0
18.82390482 21.49938763763382 10.0
18.87063276 4.241160610242595 10.0
18.8091141 19.058361184180974 10.0
18.87477774 6.764597937196522 10.0
18.805148040000002 16.62720721248517 10.0
18.71395848 9.129544301414022 10.0
20.66669136 9.983757465101002 10.0
23.21302116 11.88757481594905 10.0
21.02939202 13.143814916119133 10.0
18.8117979 14.183391672257908 10.0
17.40110316 1.746504002527481 10.0
17.40110316 21.48320650722037 10.0
17.40211704 19.048068125846832 10.0
17.54149572 6.823832827738797 10.0
15.257492460000002 15.395316282567888 10.0
17.370507840000002 9.177578573640007 10.0
15.313822440000001 10.659889651802708 10.0
14.563282860000001 11.892201158297082 10.0
15.276070319999999 13.010248649477846 10.0
19.35180828 10.276279542274452 10.0
21.291897480000003 11.051402173858465 10.0
21.89133912 12.11984376455147 10.0
19.5599817 12.973879843363886 10.0
17.407096980000002 14.170840781773052 10.0
16.67003604 15.374885115164854 10.0
16.70489562 10.501664316378129 10.0
16.7000946 12.95944742608677 10.0
18.794502299999998 11.649130032346143 10.0
17.4053376 11.705597971723325 10.0
