N=190, ave_E=-6.293644736842105 
1
25.56 0 0
0 19.676097173982445 0
0 0 10
C
190
C
2.76633324 0.8551704058144945 10.0
4.1271732 0.8258530210252608 10.0
1.8789104879999998 1.9250562220400727 10.0
2.4185050919999997 19.289737329874125 10.0
4.74140556 1.970580808071516 10.0
4.78616112 19.161980430923457 10.0
0.372935736 1.8212156192043802 10.0
2.531587644 3.144653526443048 10.0
2.6198744400000002 17.74063819936649 10.0
1.282611024 18.621104195707854 10.0
6.059330279999999 1.8945740122981392 10.0
3.9910917599999998 3.1698192547285715 10.0
4.05442944 17.840218927164013 10.0
25.095165839999996 0.5771491203558401 10.0
25.209827999999998 3.0591805603192688 10.0
1.7823678119999997 4.323409155941989 10.0
1.768953924 16.575990331541295 10.0
0.021961918799999997 18.956325863260993 10.0
6.718343760000001 0.63225793332073 10.0
6.76938708 3.0119185749073627 10.0
4.60560528 4.3972732247331185 10.0
4.6927904400000005 16.615362201986432 10.0
23.70342384 0.613231147353489 10.0
23.776142039999996 3.064138936807112 10.0
0.35245962 4.292458655087314 10.0
2.4517152 5.535928968191484 10.0
2.490724872 15.416222135815245 10.0
0.2245387212 16.576010007638466 10.0
24.92243136 17.765626842777447 10.0
8.12560068 0.558374188432426 10.0
8.112181679999999 2.9568058267230377 10.0
3.8462176799999996 5.572506832837917 10.0
3.9452371199999994 15.41130311152175 10.0
6.06186072 16.58950781029982 10.0
23.041470959999998 1.8424362900065203 10.0
22.958937719999998 19.037214298743233 10.0
23.071043879999998 4.296295494036241 10.0
25.18408908 5.508697249702691 10.0
1.736191116 6.726509932091987 10.0
1.8123445799999998 14.253837019165058 10.0
25.13056644 15.35626906772612 10.0
23.60969532 17.770998417305943 10.0
8.826353639999999 1.7611956523848642 10.0
8.825229 19.018836823982735 10.0
8.69753124 4.116751107323651 10.0
4.494317039999999 6.759624803635798 10.0
4.65416928 14.178615299668925 10.0
6.75982764 15.363293434417233 10.0
6.764096159999999 17.79297661784928 10.0
21.63881484 1.8530653176999057 10.0
21.592781279999997 19.055158899365907 10.0
21.66314796 4.306979614801714 10.0
23.76860184 5.5120815384166155 10.0
0.306075888 6.721669612187187 10.0
2.4256439999999997 7.9321234342334135 10.0
2.5410141719999997 13.110380307996243 10.0
0.314462124 14.18719407803678 10.0
23.70723228 15.346667132305218 10.0
22.9517298 16.562118683033635 10.0
10.231335719999999 1.7543109859836878 10.0
8.14906476 17.822628496290474 10.0
10.224894599999999 19.006303150082907 10.0
10.17162756 4.18522392548911 10.0
7.848734759999999 5.2478118772728575 10.0
5.804522639999999 6.703961124730603 10.0
3.85117632 7.977457162122269 10.0
3.9446492399999995 12.98339077683536 10.0
6.054831719999999 14.162539928277779 10.0
8.16391512 15.387062159803403 10.0
20.91367764 0.6162632339279998 10.0
20.95214544 3.0844840212850104 10.0
20.89343412 17.816155060320234 10.0
20.95886772 5.544842240211297 10.0
23.0463018 6.743667488827699 10.0
25.11280224 7.932910478120372 10.0
1.6532949239999999 9.089628878784453 10.0
1.685142684 12.124312698122113 10.0
25.11162648 12.967335081541389 10.0
21.59380368 16.57079584188736 10.0
10.9059408 0.5126941612333084 10.0
10.94814036 2.978587266294636 10.0
8.86630392 16.609144555279453 10.0
10.944076319999999 17.77538618697574 10.0
11.2884462 5.288147876479522 10.0
9.92193192 5.893010779704917 10.0
6.45755508 5.38621354479465 10.0
8.514061559999998 6.392488506466461 10.0
6.502489559999999 7.906701916684628 10.0
4.6601503200000005 9.221891603987963 10.0
4.67016984 11.709579921888912 10.0
6.7526708399999995 12.955155577390697 10.0
19.51482996 0.6201689392170353 10.0
19.55725956 3.1007561536478936 10.0
19.508184359999998 17.81570251008523 10.0
19.57101084 5.559599313091783 10.0
21.64837428 6.756948854420138 10.0
23.72520096 7.950146739244781 10.0
0.2043401868 9.132916292567213 10.0
2.78547768 10.18501688455723 10.0
1.548892548 10.74332614186898 10.0
0.15799862879999998 11.692756858805154 10.0
23.70825468 12.931898430531048 10.0
20.92198464 15.35951562375983 10.0
12.2590872 0.46350391829835225 10.0
12.414568679999999 2.9726057327537454 10.0
10.24628832 16.614732566876864 10.0
12.353224679999999 17.725428576250998 10.0
12.633975719999999 5.498741144532656 10.0
10.4626026 7.2072560143438995 10.0
7.781869799999999 7.7614529673462895 10.0
9.190558079999999 7.91042069905051 10.0
5.98863132 9.181378519906731 10.0
4.06439784 10.435277164513112 10.0
6.06140064 11.716407527608283 10.0
8.140451039999999 12.964127877702031 10.0
18.82731708 1.8629781354561579 10.0
18.8047476 19.046225951248918 10.0
18.88198992 4.356346942611235 10.0
18.80939952 16.577525067120863 10.0
18.853081559999996 6.796340400962451 10.0
20.931799679999997 7.9973496963651645 10.0
22.99819788 9.199716642472884 10.0
24.986152439999998 10.386441091327287 10.0
22.988945159999997 11.68012480441946 10.0
21.623785559999998 14.130959792313538 10.0
19.5243894 15.350956521489145 10.0
12.94100244 1.594080656257079 10.0
13.04132544 18.89712048686448 10.0
13.328747639999998 4.320556121851761 10.0
10.88061084 15.427142369746806 10.0
13.106452319999999 16.519480580457614 10.0
13.267352519999998 6.776939769148903 10.0
11.26549332 8.25152551965867 10.0
9.13266468 9.396615346892927 10.0
6.774039 10.45221828417991 10.0
8.88521832 11.79025192030224 10.0
17.417044079999997 1.8958077035909477 10.0
17.3949858 19.01594443769816 10.0
17.52447276 4.393357681395496 10.0
17.39772072 16.566565480994957 10.0
17.460853919999998 6.800708494535074 10.0
19.53655596 8.009234059058251 10.0
21.6178812 9.211089426639445 10.0
23.6675376 10.41831636874914 10.0
21.615964199999997 11.679731282475979 10.0
20.93156964 12.895359918078963 10.0
18.823662 14.121357856892635 10.0
14.274237599999998 1.3222297948721855 10.0
14.522629679999998 18.838564421674707 10.0
14.75586468 4.488098089288221 10.0
10.16551872 14.2472258505146 10.0
14.54297544 16.51336131423651 10.0
14.669983079999998 6.795828822435927 10.0
12.606115319999999 8.062339845330829 10.0
10.537340039999998 9.505384812070702 10.0
8.2257192 10.530470122640837 10.0
10.300935599999999 11.859275669188568 10.0
16.65078084 0.536600619299697 10.0
16.839336959999997 3.2507076902108136 10.0
16.688660759999998 17.759291139487424 10.0
16.79327784 5.623389220129835 10.0
16.6832676 15.351802593667626 10.0
16.73249616 7.990659823326011 10.0
18.8168886 9.243004056255646 10.0
20.913626519999998 10.450860633474905 10.0
19.52129664 12.89746526047658 10.0
17.432942399999998 14.151875483609482 10.0
15.175815479999999 0.325058963362777 10.0
14.91290532 2.3712254987281463 10.0
15.243805079999998 17.70162049867048 10.0
15.53815404 3.441762593770183 10.0
15.37914528 5.647571143556659 10.0
10.88201664 13.109947433858416 10.0
15.241172399999998 15.354222753620027 10.0
15.35113152 7.956698879603717 10.0
13.30676604 9.197394863006355 10.0
11.119622399999999 10.6699539755072 10.0
17.41310784 9.211699385651839 10.0
19.5123762 10.457885000166018 10.0
18.81555948 11.675776386944008 10.0
12.23311824 13.236464738687124 10.0
14.568024239999998 14.14984884560056 10.0
14.7099078 9.123491442020876 10.0
12.54566592 10.524449236905602 10.0
17.4252744 11.66798465246311 10.0
12.954625919999998 12.083917670623926 10.0
15.564046319999997 13.196443557035241 10.0
15.582117239999999 10.279265390020605 10.0
14.09066568 11.147669938794321 10.0
15.36158556 11.86342732569228 10.0
