N=153, ave_E=-6.518356078431372 
1
30.14695793286453 0 0
0 14.918875095246637 0
0 0 20
C
153
C
2.7546240165912175 0.7169981533025344 10.717279230495215
4.167364729849528 0.6897100388658187 10.362066784509594
2.0951472530266324 1.9796452118886574 11.043011955041457
1.9582077113123886 14.371009245123895 10.712729890766923
4.691529887428245 14.420838287942018 9.820452725389778
4.988658304814557 1.91780647461886 10.396156503540315
0.6681651168408362 2.0157190518689636 11.319247863343808
2.7868209676635165 3.2112878642518385 10.78200117036316
2.566844645018991 13.172456657721971 10.167658333453595
0.5783362262882799 14.407157679479678 11.152560055698917
3.9696911266837356 13.176827888124878 9.739171188910827
6.492448860421705 1.9650097954202204 10.3715900690075
4.219096909662324 3.1836581075754418 10.399128738829475
30.05916999136403 0.769338042799188 11.404896765961922
30.05404500851544 3.3046054279726063 11.258044079532414
2.0422091948965226 4.4524487589257875 10.770840123563069
1.8557864364312748 11.909454529908581 10.164989387479658
30.009638539480335 13.155493896738674 11.156260185344596
4.64118446768036 11.930833277920069 9.463177912060658
7.247388980976499 0.8457122400742842 10.661655970083878
7.197736941261071 3.22073151218713 9.946014501890847
4.83777278036057 4.359996489960544 9.839620610111684
28.64156958848694 0.8032158243654742 11.582199699639517
28.59366607233162 3.312557188398373 11.399498216151006
0.6235626925791633 4.5596557953602295 11.002310528938942
2.471776213177703 10.696818524416745 9.555984442517971
0.45096231432613393 11.879855481719613 10.764167758628226
3.8729495386771733 10.699772461685601 9.264098805550276
6.094418574834095 11.903039413617625 9.362303885818502
8.581994808664412 0.5982856803946378 10.139513085001184
8.799746285813493 3.219657353180272 9.976404091275889
6.309878883180278 4.398069459203613 9.577093378857281
4.0812650179932675 5.605379426286447 9.737594084471684
27.860341320614687 2.0150029458643917 11.503526451271458
27.888317697576387 4.552077006811844 11.401257294179288
30.009849568185864 5.799459072400511 10.895249400666291
1.736612497026868 9.511528816974494 9.408343203868892
29.826013418711256 10.610169697863551 10.897190452283702
4.562320025727987 9.395086996856094 9.014794988439466
6.785989789814007 10.648630557859097 9.135261504444834
6.882490202157107 13.05689505123419 9.758703020810998
9.690347717066176 1.7193555981018893 10.03979155815686
9.097628377148126 14.171185832098162 10.077520748970223
9.981416595907984 4.225517749851991 9.244627631513154
6.8067308968718185 5.597427665860681 8.872430983875212
4.596054471654862 6.826101462079908 9.1820893747148
26.39251608582145 2.0164202389984403 11.415087286953316
28.625531406866656 5.77335104098383 11.205514370136317
26.434812267801256 4.480630513980708 11.260591709780261
0.3867131175796131 6.952747792763457 10.282604983921964
2.3481073623455058 8.168904652777773 9.277928798324304
3.8183232509028224 8.10708083438307 9.10541783582719
6.037470971298914 9.386419130425754 9.004483151721985
8.23952536654707 10.647481804476763 9.077151271648688
8.29454356477455 13.051643607200663 9.621009671701131
10.748656675299387 2.7701814843106813 9.148120971410162
10.961916255716469 0.6093510100527822 10.018561306091463
10.528885351968803 14.176511870507165 10.034756955524212
10.691739218722137 5.4624864406241755 9.7833907710699
8.19183287909728 5.73442769586033 8.475364612389232
6.0156445737555195 6.81288333874552 8.856841913072909
25.58783348467743 0.7421334740630059 11.57922746435036
25.70004046210355 3.278810692932925 11.341084694039647
1.5563698649378577 6.987523690610477 9.507094204904512
6.7572295919460545 8.141692624604042 8.81880943294432
8.93673406266043 9.367830212057077 8.98755960793271
8.976708928879408 11.855940524941932 9.162921489992897
12.288623580425972 2.405519420357568 9.00878985999811
12.285307415053357 0.9063425484613665 9.350839549703185
11.215753641511188 13.169323693951968 9.2759877467069
10.27227444604426 6.757325447890821 9.278232087639527
11.976602565820825 5.355637457192019 10.336165876989813
8.950059018066755 6.90754360122486 8.722302772841328
24.118169285450282 0.8015314833672209 11.696175824299175
26.075701704904972 14.225759077196573 11.381361515100856
24.25319751003158 3.366056274489927 11.204847133642833
8.202504902205513 8.141811975604805 8.806738518198568
10.375226307384992 9.269574500679784 9.318448250837694
10.464009098497279 11.92301578737016 9.031354585050472
13.424349926630777 3.2101241919944092 9.49581184237833
13.11085171108692 -0.16740768121878158 8.717510801660854
12.432635598471267 13.469387028742664 8.472938297867472
11.075268817544039 7.994756623790958 9.419261619216808
13.185947783297683 5.5967861542315855 9.553497470133166
23.428587769693937 2.152883189494661 11.444870297707912
23.656197302087065 14.240379574789914 11.69199043174914
24.849263162280177 13.246140981817392 11.35879679004849
23.620352569104888 4.5330703599405 10.589412455198481
13.85228599448779 4.445496563131403 9.033234978804838
14.57246667254599 14.668581127773683 8.768524064480854
13.163367711805968 12.45227780024913 7.76318064238971
12.543757285411804 8.01603093967678 9.539970766674358
13.410542619897525 6.905111824584334 9.07442166781171
21.9626919402084 2.2477373973502393 11.24269764018229
22.42861317506082 13.762438492238594 12.36662718452444
25.003947203433707 11.846123905129259 11.932195569403362
22.418212474573984 4.212299626517602 9.800011025543956
24.379302235064756 5.814855351498805 10.369406385937921
15.095154629185997 4.527311674153735 8.31534916967918
15.45209461111111 0.9229248781297331 8.753298940856812
15.209954244994341 13.352825857623502 8.775621034457
12.679931094394552 11.89071642278895 6.5087153767768875
14.525558006002452 12.24820250782125 8.25165841348299
14.334396145750159 7.1782913464533955 7.993862495546015
21.087525751417342 1.4782143604998703 11.9943092211604
21.49375600956269 3.126339789459504 10.249910395741253
22.56846491291138 12.46263149956523 13.016090924136464
21.028829624322057 13.944687470402126 11.823557336691565
25.97250866790078 11.689923282882026 12.991221200288436
24.338061196612596 10.614093362013602 11.366136391476815
22.083551094561255 5.037059798408122 8.652546230340736
24.077651773988514 7.261851965861872 10.634420589577122
15.91409674143226 3.3336375589079563 8.079875345342398
16.863514887611963 0.8008019503750632 9.305346152420189
15.219149067163865 2.053553319110509 7.865995720249277
16.63521197518638 13.237055386884387 9.14163058006445
15.221199060303302 10.908233903391483 8.240982629587243
15.144052994953103 8.378768468742607 7.895596757414751
20.526340129497072 0.32276091136060386 11.48502580304304
20.124993678536846 3.0938166417518667 9.737594084471684
22.066065858960194 11.31202817671943 12.428558862692348
20.19638167492187 12.777270575323984 11.609617053735402
22.919164474544395 10.289771936318035 11.818886681237174
25.107924061344157 9.624584052446274 10.62131849115962
21.602043882457544 6.358409646719021 8.72848987487182
22.74476432290277 7.8174457932839525 10.578190750535342
25.18962231734222 8.204516007630128 10.977198173638726
17.338329475054582 3.24615327534943 8.548275363768113
17.76665745336472 1.9939822508551892 9.266525120072036
17.430790195034675 14.406948815228345 9.517830646663299
17.21952031384116 11.931295763048022 9.306377336091941
14.553172619468956 9.728971421487712 7.824627057653277
16.605607662496308 10.782393191963079 8.713386066973865
16.53509392789134 8.333310656327392 8.270644324615759
19.579213152120264 0.4698013442993547 10.430974116927572
19.658047447114708 4.236691987298331 8.885047819388365
19.215188635080924 1.8411831321296732 9.811414703796228
20.719521835930866 11.449207233220221 11.86862612893325
19.00509448524679 12.915508871956538 10.74257355938456
22.29207760258288 8.980670484460333 11.469376074377688
21.53960953257858 7.103383674600162 9.978769747934603
26.357877231156586 7.8037055093212295 11.731781989906004
18.29003879003718 4.385492847498321 8.438120684480221
18.670161782612666 14.239976765162343 10.214061598682253
18.37508335836579 11.77728821543979 10.164140177397044
17.237367312937415 9.471382124093184 8.820993116013906
20.03862264405919 10.238838896742863 11.310998393969822
20.760009200434702 8.97361385654028 11.290374720534864
20.300147504126787 7.870765852874364 10.46348673151915
17.791166930164138 5.580345553876623 7.751231043370044
18.837507546098 10.422102358412872 10.49921421285206
18.374028214838138 9.281420087505408 9.706961863634472
19.12547128827272 8.05774411444309 9.683365954910357
