N=92, ave_E=-6.1391892391304355 
1
17.04 0 0
0 14.757072880486835 0
0 0 10
C
92
C
2.60977824 0.7010731155770163 5.0
4.03142544 0.6599569591174039 5.0
1.8401496 14.27340981682888 5.0
4.77423312 1.8392772926052376 5.0
4.704062400000001 14.183967198100248 5.0
2.5894836 12.982638166118456 5.0
0.390882264 14.29892479583924 5.0
6.15767664 1.8357798663325622 5.0
4.0892421599999995 3.0089671603312653 5.0
3.9921311999999998 12.97275092728853 5.0
6.0995361599999995 14.16584551260301 5.0
1.92633792 11.731385956581978 5.0
16.61311392 0.6901027075976625 5.0
16.7791176 13.110065490441459 5.0
6.8248948799999996 0.6296105144459708 5.0
6.86960784 3.049932794647497 5.0
2.7017431199999997 2.875858362949274 5.0
4.7829576 4.269368755053646 5.0
4.69201512 11.72695883471783 5.0
6.7801819199999995 12.931888592482462 5.0
2.6052115199999997 10.487069571299328 5.0
0.566740176 11.726855535207669 5.0
15.10636896 0.6734257395354242 5.0
0.1653592272 1.887887090673561 5.0
15.129577439999998 13.097226837035437 5.0
15.95637528 11.718266918791224 5.0
8.20303896 0.5972305451316066 5.0
8.262099599999999 3.072732472247849 5.0
6.168377759999999 4.283712629893479 5.0
1.8402688799999998 3.9683539824374754 5.0
4.0959048 5.487210951588702 5.0
3.9925742399999997 10.513337161026595 5.0
6.06477456 11.709220833115486 5.0
8.16860112 12.92211941023558 5.0
1.89648384 9.238754019266064 5.0
16.777106879999998 10.343542280463712 5.0
14.36967864 1.8915320876750412 5.0
14.4165216 14.246463401749109 5.0
16.483541759999998 3.042082031875078 5.0
14.32355136 11.6968839201874 5.0
15.125249279999998 10.316448294655139 5.0
8.882747519999999 14.148697793915884 5.0
8.96404536 4.2862951176475645 5.0
6.861599039999999 5.5335186462876695 5.0
0.180492792 4.147593389643868 5.0
2.71920912 5.4444892255996935 5.0
1.0989607199999998 5.457475449734522 5.0
4.76445216 6.741739231304649 5.0
6.740172 10.471146689661282 5.0
8.84808816 11.695777139721363 5.0
2.63271408 8.06218735557773 5.0
0.41104569599999996 9.173498242988552 5.0
15.0702612 3.0861023802775702 5.0
13.03350408 14.19491694617757 5.0
12.96824088 11.692619126124939 5.0
14.414306400000001 9.157088377945453 5.0
10.245708959999998 14.153331514800358 5.0
10.318537919999999 4.286221332283162 5.0
8.260122959999999 5.5091399618891055 5.0
6.1375864799999995 6.752777521819254 5.0
16.38198336 5.451587377655207 5.0
1.9151937599999997 6.878138855938989 5.0
0.230835768 6.809636523627769 5.0
4.0425696 7.991796117937808 5.0
6.0506654399999995 9.212589729048963 5.0
8.14283664 10.467973918991978 5.0
10.22935056 11.692722425635102 5.0
16.618549679999997 7.998303987078103 5.0
12.31961328 0.6218423912816825 5.0
12.31099104 12.930840840307948 5.0
12.296285519999998 10.454190812921603 5.0
15.13232088 7.9757994509353605 5.0
13.009119839999999 9.20007573124631 5.0
10.9368684 0.628558335149592 5.0
10.932966239999999 12.929955415935119 5.0
11.0092032 3.062299221721345 5.0
10.97449272 5.511781477934713 5.0
6.7784268 7.97396957389818 5.0
14.996290559999998 5.5350828960130025 5.0
8.848411919999998 9.23587639005437 5.0
10.91851632 10.455415649970682 5.0
14.383668479999999 6.7646422084151645 5.0
12.30461808 7.992976683768248 5.0
10.28217456 1.8535768962264292 5.0
12.4416708 3.069515430359903 5.0
12.37448208 5.545073434353092 5.0
10.23829656 6.742698441041881 5.0
8.16115464 8.0254570011782 5.0
10.218461999999999 9.229132407747988 5.0
13.017537599999999 6.779266467639728 5.0
10.90732104 7.997418562705275 5.0
13.1228448 4.312444650791788 5.0
