N=133, ave_E=-5.690216466165414 
1
21.299999999999997 0 0
0 17.21658502723464 0
0 0 10
C
133
C
2.4656240999999994 1.415499414501156 5.0
3.9153659999999997 0.9761080613870896 5.0
2.5715063999999996 2.882245715994378 5.0
1.23483981 17.920743354848536 5.0
4.769623799999999 2.011723527262313 5.0
4.627126799999999 17.036241299074355 5.0
1.6715409299999997 4.004715410014995 5.0
4.003675799999999 3.1053210081922575 5.0
1.1578637399999998 16.390567710797978 5.0
21.268603799999998 1.4360990584862419 5.0
6.186435899999999 1.9709546539178215 5.0
3.5687723999999994 15.989920560629198 5.0
6.314235899999999 16.65160557298091 5.0
4.949907 15.430605362849427 5.0
21.499581 4.015992273207834 5.0
2.3397623999999997 5.2478905816615535 5.0
4.586252099999999 4.2834519216059235 5.0
2.3492621999999996 15.514002500721352 5.0
21.491487 15.102078487359735 5.0
20.2380033 0.45478814510392207 5.0
20.6997021 2.852202775121854 5.0
6.923905799999999 0.7641684563848258 5.0
6.8501012999999995 3.161825840251642 5.0
7.1788029 15.41047917495259 5.0
5.260972199999999 14.108612664948188 5.0
20.788991699999997 5.296148669492892 5.0
3.7585553999999997 5.359763951168524 5.0
1.6344853199999998 6.413487821175393 5.0
6.053864699999999 4.326304001738711 5.0
2.1874461 14.164291100926265 5.0
0.8692679099999998 13.974581550511166 5.0
20.140896599999998 14.977809176633155 5.0
18.810668999999997 0.8866902837311412 5.0
19.574359199999996 16.16256847528231 5.0
19.195240499999997 3.0845233734793585 5.0
8.250043799999998 3.116804470405423 5.0
8.5294998 15.550570527319199 5.0
6.582168599999999 14.107252554731037 5.0
4.4562368999999995 12.992099909346996 5.0
19.360464599999997 5.4152357881262745 5.0
0.19330388999999998 6.45914620466762 5.0
4.4145102 6.538101463602517 5.0
2.3262582 7.595458033050133 5.0
3.0721415999999997 13.089769596206496 5.0
21.606080999999996 12.77983663254622 5.0
19.355011799999996 13.64097578243844 5.0
18.303132599999998 2.051321672824953 5.0
18.124574699999997 16.83363652647386 5.0
18.603633 4.32051922916956 5.0
8.953667999999999 1.8607512931584926 5.0
9.017333699999998 4.268628441897475 5.0
9.301603499999999 14.317535924253681 5.0
9.077421 16.871289197928423 5.0
7.2491568 12.927417199399674 5.0
5.073212699999999 11.688959372050578 5.0
18.671835599999998 6.656758167610219 5.0
20.745773999999997 7.7074347020672676 5.0
5.770830299999999 6.401264045806057 5.0
3.755296499999999 7.7484101744320855 5.0
1.5460604999999996 8.638679786190389 5.0
2.4286259999999995 11.933624261872609 5.0
1.11092919 11.78843680033794 5.0
20.276194199999996 12.574236174150982 5.0
18.1788684 12.660301882702129 5.0
18.043251299999998 14.733230369736262 5.0
16.8933708 2.183045764868325 5.0
16.7670618 16.416736920039373 5.0
17.1990897 4.451589090981898 5.0
10.3885425 1.8304328869255324 5.0
10.439470799999999 4.262361604947562 5.0
8.6405154 13.012845894304812 5.0
10.449993 16.952138281216314 5.0
6.4747314 11.659157463368434 5.0
4.237720199999999 10.467184415592872 5.0
17.266738499999995 6.739328909400837 5.0
19.362722399999996 7.790212042878212 5.0
0.11866400399999999 8.878971663415504 5.0
6.648411599999999 7.423292182777788 5.0
4.580138999999999 9.066219242171707 5.0
1.96946403 9.87056087805908 5.0
2.970242399999999 10.738242330261654 5.0
0.64403106 10.512464034214497 5.0
18.057543599999995 11.246682519285947 5.0
16.9564401 13.445894657494845 5.0
16.385770499999996 15.030061512190812 5.0
15.692093399999997 1.3795167517942353 5.0
16.365365099999998 3.420901011741469 5.0
15.6593127 0.032012001702089274 5.0
16.566586199999996 5.605857817547816 5.0
11.1681864 3.0378319948854977 5.0
9.297535199999999 11.834508381870817 5.0
10.991673299999999 15.672670548332347 5.0
7.107405299999999 10.405032543644555 5.0
16.5651378 7.9497237031555406 5.0
18.630598799999998 9.019906628448446 5.0
20.457308099999995 10.472900321821914 5.0
8.297734499999999 7.3492436505756515 5.0
5.9590157999999995 8.960767658879893 5.0
7.496151599999999 8.791563061232234 5.0
19.110722099999997 10.278662809544652 5.0
16.634277599999997 10.634822304003055 5.0
16.0722345 12.34463579622778 5.0
14.915410199999998 15.03569133549472 5.0
14.483062799999999 2.149060226024564 5.0
14.891042999999998 3.5386624533277535 5.0
15.195760799999999 5.60714906142486 5.0
12.582612899999997 3.026021417556815 5.0
8.618193 10.557640353325962 5.0
12.3146589 15.403265425826179 5.0
15.199317899999997 7.946211519809984 5.0
17.2569405 9.130574837003511 5.0
9.267140099999999 6.346429222494314 5.0
9.0341607 9.014052989539186 5.0
15.176399099999998 10.356843322153326 5.0
14.704646699999996 12.607429750083492 5.0
14.103134699999998 13.865307885343308 5.0
14.495501999999998 6.7557535315168185 5.0
12.711264899999998 14.028193996285975 5.0
13.231389599999998 16.541677677582015 5.0
14.549114099999999 9.122551908380817 5.0
10.609082699999998 6.6031629384204376 5.0
10.391247599999998 9.047918012287756 5.0
14.209229999999998 11.342510031547535 5.0
13.132259399999999 6.747489570703745 5.0
11.659130099999999 12.886527809959992 5.0
12.802599299999997 0.7292928200951566 5.0
13.151280299999998 9.22409532687145 5.0
11.153723699999999 7.900226021202241 5.0
10.817609699999998 10.398869006204803 5.0
12.994682699999998 10.729186406537329 5.0
12.398410499999997 5.500061902555459 5.0
12.468977399999998 7.977855603090042 5.0
11.825759999999999 11.378768159614891 5.0
