N=236, ave_E=-6.2048855932203395 
1
29.82 0 0
0 22.13560932073025 0
0 0 10
C
236
C
2.3495744579999998 0.9270592404005715 5.0
3.79674204 0.976361883040634 5.0
1.691098164 2.0899579031869995 5.0
1.5177783599999999 21.831953032068473 5.0
4.56675408 2.1702349039495594 5.0
4.5037146 21.946504810303253 5.0
0.296573319 2.0007912417212337 5.0
2.4305894340000003 3.3578169846895336 5.0
2.085706224 20.657415465901202 5.0
0.1248193632 21.78737191489652 5.0
6.06228672 2.099949917234377 5.0
3.86315118 3.4436146064166846 5.0
3.4529472599999997 20.54629470711114 5.0
6.2776765800000005 21.57509142151072 5.0
5.0029014 20.510656376104766 5.0
29.33822808 0.7992615135482675 5.0
29.5250802 3.158795721286848 5.0
1.378381788 19.46871110976867 5.0
29.18206074 20.55665417227324 5.0
6.9341937 0.7828280371885573 5.0
6.73359456 3.3206734322493485 5.0
4.61118588 4.7095501034692475 5.0
3.4645174200000004 19.083617914415925 5.0
7.062479339999999 20.17567820025415 5.0
27.966537900000002 0.7899889068038136 5.0
28.14608412 3.174512003904567 5.0
0.551142186 4.287733932253412 5.0
0.0392672742 19.40573530125119 5.0
2.1936546239999997 18.308495282831913 5.0
27.790510440000002 20.502045624079 5.0
8.485907220000001 0.6539965773809752 5.0
8.1316158 3.3042266745240454 5.0
6.0393551400000005 4.5918107974922835 5.0
3.95186568 6.136654971986046 5.0
4.7415291 18.416406378270473 5.0
8.40724206 20.17979542358781 5.0
6.23333424 18.813253582172525 5.0
27.38746332 1.9649713987184283 5.0
27.136557840000002 21.72601200585946 5.0
27.54446562 4.37649772562954 5.0
29.910951 5.590746574918198 5.0
29.25455316 18.168354740222373 5.0
2.776856292 16.998332838356532 5.0
27.1147296 19.211251837759256 5.0
9.11689842 21.421647377699415 5.0
9.5142201 1.7376032740196152 5.0
8.914480260000001 4.445826454022067 5.0
6.84643344 5.71904456654115 5.0
3.49961556 7.63780345368069 5.0
4.16400516 17.08579063078274 5.0
9.08549796 18.93402546662643 5.0
6.96842706 17.630038857151533 5.0
26.05218336 1.9363168524527428 5.0
25.70042664 21.79669100642055 5.0
26.16388908 4.420237689647303 5.0
28.387834859999998 5.527084562511778 5.0
30.024267000000002 7.302448972471627 5.0
27.89112312 17.994236037305505 5.0
30.171577799999998 17.142966909658185 5.0
2.063660298 15.79025982406836 5.0
25.73072376 19.089373172839316 5.0
10.49780298 21.271258047974374 5.0
10.95222996 1.431352691945448 5.0
10.321924619999999 4.396397638408876 5.0
8.2592454 5.6658526973434356 5.0
4.31185272 8.897164674764996 5.0
4.9159761 16.009601576827475 5.0
8.371249319999999 17.70093921380583 5.0
10.479761880000002 18.919238879600183 5.0
6.28823286 16.306683589520993 5.0
25.378758299999998 3.0734186761367916 5.0
25.49621928 5.786137598392283 5.0
28.32926838 6.96428326887883 5.0
0.389988942 8.855748949725909 5.0
27.26922702 16.671677651610516 5.0
0.639448152 15.772551336611773 5.0
2.739915276 14.617648055911992 5.0
25.0975557 17.825274931360372 5.0
11.14292886 20.099598111018803 5.0
11.39887392 22.260011445112752 5.0
12.15484074 2.112321509283733 5.0
11.16249078 5.557034041922726 5.0
8.98348374 6.835852463599954 5.0
5.7780723 8.952193799536332 5.0
3.71834526 10.232428900210085 5.0
4.22835672 14.682593933659016 5.0
9.062268179999998 16.51699401367725 5.0
11.18020386 17.74270910859405 5.0
6.976299539999999 15.196029391853354 5.0
23.8964061 2.9669685309133995 5.0
23.9132544 6.1129920056221865 5.0
25.88802426 7.212379178145575 5.0
24.09453018 4.728896626015565 5.0
27.176635920000002 7.707464216213028 5.0
0.930828318 10.24254487366966 5.0
28.736460479999998 9.107430827702613 5.0
28.000264320000003 15.398525945919394 5.0
25.850451059999997 16.618352968756877 5.0
1.849203804 13.50024249740153 5.0
23.7222573 17.778568795693634 5.0
12.5406519 20.23471387031254 5.0
13.06333686 21.750405447330902 5.0
12.186718319999999 3.438656229928841 5.0
13.27723572 1.2777404175033085 5.0
12.656860439999999 5.516902182224242 5.0
10.51605282 6.790186701571288 5.0
8.1055233 7.942278759887334 5.0
6.6353973 7.804351778209864 5.0
6.49378212 10.22952913538907 5.0
2.285336214 10.724260003707393 5.0
4.55342454 11.457612740503185 5.0
8.3491527 15.290548443652874 5.0
10.474811760000001 16.5335957206678 5.0
12.59936748 17.76820933053153 5.0
6.20235126 13.974210164177006 5.0
23.119535459999998 1.76079032478308 5.0
22.82503314 4.097943217937471 5.0
22.978337760000002 7.063871375212797 5.0
25.02661392 8.329696194218755 5.0
29.699885039999998 11.228110743065853 5.0
27.83291448 10.29319114779549 5.0
27.2833617 14.119043455962546 5.0
25.15961112 15.36992673867701 5.0
2.459735502 12.243360464561146 5.0
0.444484992 13.681665951394235 5.0
23.05097928 16.57350622427308 5.0
23.053156140000002 18.98666394559113 5.0
13.30601202 19.036690422655976 5.0
14.59930542 21.5145283944092 5.0
13.261282020000001 4.304734080211732 5.0
14.64239532 1.7241647456009999 5.0
13.450311000000001 6.660117861202676 5.0
11.45696328 7.846918554933628 5.0
8.600296740000001 9.19435736550512 5.0
7.82199474 10.277629814443017 5.0
5.91593016 11.449909548459571 5.0
3.8353887600000003 12.620971823963483 5.0
9.00358242 14.147819748079495 5.0
11.1625206 15.337520206631462 5.0
13.28203674 16.55619617778427 5.0
6.756764700000001 12.699243338521587 5.0
23.78252352 0.5150093000170421 5.0
21.64609944 1.7920303102174266 5.0
21.50922564 4.26130401472446 5.0
21.554074919999998 6.867572791756561 5.0
23.636614259999998 8.263377908693847 5.0
25.679463180000003 9.594281419102753 5.0
29.3313993 12.632128171061131 5.0
27.15137838 11.603973389331852 5.0
27.930127680000002 12.824375938011674 5.0
25.83908964 14.147531985158324 5.0
23.76403512 15.356667508693894 5.0
21.66443874 16.584684706980045 5.0
23.73928452 20.21348582097396 5.0
15.37465524 0.5445536977774207 5.0
15.2727603 20.25804480253659 5.0
14.673199380000002 4.2043269563329 5.0
15.324975120000001 2.970975076200452 5.0
14.834376480000001 6.648452395090651 5.0
12.82209306 7.803200726525186 5.0
11.1918933 9.117856699692677 5.0
9.8932323 9.52322611318321 5.0
8.23869942 12.87973709692282 5.0
10.426175339999999 14.136862621465733 5.0
12.577121759999999 15.33771942711535 5.0
14.657186040000001 16.589355320546723 5.0
23.09105736 21.434264675012233 5.0
20.98519878 0.5395931077286451 5.0
20.873642160000003 3.018721585505267 5.0
20.859268919999998 5.550260545470582 5.0
20.82578106 8.075867162137941 5.0
22.9652766 9.400993278514138 5.0
25.7319762 11.69052362177591 5.0
25.0889079 12.92790418280473 5.0
23.0469834 14.149657003653115 5.0
20.951203980000003 15.376235387333418 5.0
20.95907646 17.79877860700346 5.0
16.758213780000002 0.531830149539865 5.0
16.7187321 20.233452140581257 5.0
15.46128234 5.4213427567866495 5.0
16.73778708 2.9590218471672576 5.0
15.58992582 7.906175581085223 5.0
13.46796444 9.050409498092412 5.0
12.56587962 10.286129888422177 5.0
10.0093812 10.855878336728454 5.0
9.388856819999999 12.083297873562946 5.0
11.13237258 12.832920283209475 5.0
13.29128094 14.12891593771959 5.0
15.375281460000002 17.784191240461098 5.0
21.6831657 21.44013061148223 5.0
19.519724699999998 2.981290270143912 5.0
19.466525819999998 5.455520137577857 5.0
19.40127966 8.0848984907408 5.0
21.560516040000003 9.351874361431436 5.0
23.696552460000003 10.614733008788418 5.0
21.64091076 14.154216939173185 5.0
19.54414728 15.387900853445444 5.0
19.55544906 17.82478794795532 5.0
17.4449982 1.7332868302020727 5.0
17.44556478 21.461093033508956 5.0
17.43721518 19.02666299163369 5.0
16.84507944 5.383003881443145 5.0
17.458029540000002 4.169352693606146 5.0
17.01392028 7.865601009200325 5.0
14.86354044 9.13372793157564 5.0
13.37990598 11.625622015247528 5.0
11.3266797 11.243340042278517 5.0
12.6278754 12.885603033392814 5.0
14.68995822 14.111539484402817 5.0
16.74896958 17.819032689531927 5.0
20.96879778 20.239960009721553 5.0
18.836637959999997 1.763484228437413 5.0
18.80997888 4.193148473625931 5.0
18.742347119999998 9.328919734565838 5.0
20.88703134 10.554258524124183 5.0
23.026258499999997 11.81609893345241 5.0
20.931701699999998 12.971865502915701 5.0
18.843496560000002 14.17433820804573 5.0
18.8450472 16.608259130906625 5.0
18.86103072 19.028854416956438 5.0
18.85417212 21.43787277933151 5.0
17.6298822 6.596101679047123 5.0
15.50637018 10.396298816011452 5.0
14.7679077 11.634985377990196 5.0
15.425945640000002 12.899260704343703 5.0
17.43712572 16.61049482744802 5.0
19.57253592 20.23077373185345 5.0
19.4934831 10.556715576758783 5.0
21.61496736 11.791329186622514 5.0
19.54486296 12.96974048442091 5.0
17.44502802 14.157869314711105 5.0
16.87728504 10.491459800481271 5.0
16.786363859999998 12.932862559292573 5.0
16.742617919999997 15.3786703043587 5.0
18.8517567 11.762265131584394 5.0
17.509498859999997 11.734617755542804 5.0
