N=137, ave_E=-6.366395474452555 
1
21.299999999999997 0 0
0 17.21658502723464 0
0 0 10
C
137
C
2.4939317999999995 0.6253425230177193 10.0
3.9032888999999993 0.6339783620673802 10.0
1.7609029499999997 1.8169178676791533 10.0
1.7932171799999999 16.66548214051286 10.0
4.591790099999999 1.8068461654382209 10.0
4.582609799999999 16.67522672763827 10.0
0.36915455999999996 1.8422262476691882 10.0
2.4204255 3.009734528121051 10.0
0.4062719399999999 16.62700307297699 10.0
6.061958699999999 1.8010786094540974 10.0
3.8330201999999995 2.9815681950164947 10.0
3.7908035999999994 15.5465246298378 10.0
6.039146399999999 16.63597291377618 10.0
20.9203488 3.0444948132910374 10.0
1.6717880099999995 4.266459152184043 10.0
21.033281399999996 15.43494394227629 10.0
6.759576299999999 0.603952637779883 10.0
6.797447699999999 2.981998609642176 10.0
4.490039999999999 4.146855535999844 10.0
4.358640299999999 14.326540198222924 10.0
6.731630699999999 15.420413144513304 10.0
19.520448899999998 3.0821474847455996 10.0
2.3069604 5.54040036127427 10.0
0.6018038099999999 14.220262218849804 10.0
19.5539751 15.457755917437376 10.0
8.1862716 0.6005730221390368 10.0
8.205143399999999 3.025780385366433 10.0
6.112908299999999 4.1411568463558295 10.0
3.6632165999999993 5.540142112498862 10.0
5.285381999999999 5.523596974287689 10.0
3.6325232999999995 13.058004996831249 10.0
5.906958599999999 14.259171701011356 10.0
8.2009899 15.375150742476706 10.0
18.818017499999996 1.8723208382967944 10.0
18.8175276 4.29667425890684 10.0
1.6652148299999998 6.7802699485956 10.0
21.24888 12.968943602485364 10.0
18.753947099999998 14.291797129637965 10.0
18.8351214 16.65127845786539 10.0
8.901610799999998 1.822995322193767 10.0
8.8977129 16.598836739872432 10.0
8.936074199999998 4.288444731263822 10.0
6.9217545 5.516073326630788 10.0
4.4875905 6.9208605819279985 10.0
6.123302699999999 6.87614911061227 10.0
4.435852799999999 11.720482939235444 10.0
2.2934349 12.919445920532064 10.0
7.065976799999999 12.991927743496722 10.0
5.650229699999999 12.680565803279183 10.0
8.984553 14.138707255575794 10.0
19.509543299999997 0.6543765720076478 10.0
17.3934522 1.8685331895908026 10.0
17.388531899999997 4.299945410062015 10.0
19.518254999999996 5.505330177573794 10.0
0.32196014999999994 6.760952940195043 10.0
2.4030446999999997 8.042383363772117 10.0
0.41686655999999994 11.639151791566787 10.0
19.950517199999997 13.240380282024745 10.0
17.276323499999997 14.25497085426471 10.0
18.666169799999995 12.660956112933162 10.0
17.374431299999998 16.64187820244052 10.0
10.309775099999998 1.8321028956731742 10.0
10.3121394 16.60277933784367 10.0
10.3271985 4.2923701126500315 10.0
8.275539899999998 5.520945620193496 10.0
3.8205809999999993 8.094205284704094 10.0
6.828503099999999 8.008277308833165 10.0
3.8515298999999996 10.430840204600377 10.0
6.192357299999999 11.362619002859345 10.0
1.7352811799999999 11.625068625014508 10.0
8.364211799999998 12.917741478614367 10.0
10.351714799999998 14.154667029896041 10.0
16.675791299999997 0.6415020097242817 10.0
16.6837575 3.090101547028182 10.0
16.6827564 5.513697437897029 10.0
20.921924999999995 5.543671512429445 10.0
18.817357199999996 6.721148195612077 10.0
20.952660899999998 7.946728017360801 10.0
20.999137499999996 10.393635164356525 10.0
16.5516549 12.982751303677206 10.0
16.624309199999995 15.428195040945615 10.0
17.254405799999997 11.6873926628131 10.0
18.747429299999997 11.277603505994861 10.0
11.014677299999999 0.6129637983831375 10.0
11.023452899999999 3.064138936807112 10.0
11.030993099999998 15.378645709237233 10.0
11.034102899999997 5.535028786745773 10.0
8.948215199999998 6.751242786239683 10.0
4.597115099999999 9.242913054306216 10.0
8.2393512 7.979990459633418 10.0
6.128308199999999 9.166712448975675 10.0
2.4702887999999996 10.41913292678186 10.0
6.880943699999999 10.284327066018612 10.0
8.9897076 11.659501795068978 10.0
11.051079 12.914349811364003 10.0
15.248691299999997 0.6331622959370893 10.0
15.268564199999997 3.0662737933504896 10.0
15.2667963 5.542638517327811 10.0
17.393814299999995 6.732958772940759 10.0
19.536807299999996 7.925517184607248 10.0
0.37740405 9.172841553245371 10.0
19.589780399999995 10.270433281901635 10.0
15.205175399999998 12.950143091635624 10.0
15.225026999999999 15.412768980761212 10.0
16.632445799999996 10.420234788223603 10.0
12.4255041 0.6177104108751462 10.0
12.438071099999998 3.0651374987386917 10.0
12.4263348 15.38258830720847 10.0
12.4420329 5.539987163233617 10.0
10.334163599999998 6.761744903106296 10.0
8.954711699999999 9.18854307879021 10.0
8.264889899999998 10.369170397032825 10.0
10.356784199999998 11.666491728590035 10.0
12.4327674 12.918567874695675 10.0
14.540849699999997 1.854553322548688 10.0
14.533394699999999 16.621941396978983 10.0
14.541872099999999 6.756493844672989 10.0
16.6821813 7.963324805327056 10.0
18.866176799999998 9.107866161352586 10.0
14.521977899999998 11.690216182757565 10.0
14.512030799999998 14.168784629618372 10.0
17.397605699999996 9.169019471369324 10.0
15.235762199999998 10.432992277728783 10.0
13.1363703 1.8489407158298097 10.0
13.129703399999999 16.613229804955203 10.0
13.125869399999997 4.303164911462107 10.0
13.126124999999998 14.156491987908927 10.0
13.140672899999997 6.761245622140506 10.0
11.035636499999999 7.988736484827254 10.0
10.339467299999999 9.205208733096573 10.0
11.0441991 10.444062541901294 10.0
13.1313648 11.685584921385239 10.0
15.253888499999999 7.980472524014181 10.0
14.540764499999998 9.215297651922532 10.0
12.434258399999997 7.991714954036966 10.0
12.434194499999998 10.450622060796672 10.0
13.137413999999998 9.220307678165458 10.0
