N=95, ave_E=-7.269242421052632 
1
17.04 0 0
0 14.757072880486835 0
0 0 10
C
95
C
3.9235622399999994 0.6144107293790694 10.0
4.61024016 1.8502713119012002 10.0
4.61083656 14.136213310258993 10.0
6.0370164 1.8488251187589126 10.0
3.9060791999999998 3.0700024137649593 10.0
3.9075616799999997 12.91606901035458 10.0
6.0365392799999995 14.139120453616448 10.0
6.74816376 0.6161727238809994 10.0
6.7490839199999995 3.076672610706939 10.0
2.49651336 3.0677003103956033 10.0
4.61765256 4.302882067565231 10.0
4.61784 11.68299751460686 10.0
2.49884784 12.919522165408614 10.0
6.74765256 12.912364985061577 10.0
8.171651279999999 0.6170315855226438 10.0
8.1717876 3.076672610706939 10.0
6.0393168 4.304446317290563 10.0
1.7692632 1.854905032785673 10.0
1.78269072 4.299960167134896 10.0
3.9071016 5.532603707769081 10.0
3.9077832 10.4523019075929 10.0
6.037749119999999 11.681890734140826 10.0
1.78415616 11.686524455025298 10.0
1.7721599999999997 14.133660336650669 10.0
8.16878856 12.913073324559841 10.0
8.88291792 1.846832913920047 10.0
8.88117984 14.14406407303141 10.0
8.88102648 4.305803967995568 10.0
6.748061519999999 5.533946601401204 10.0
0.35633366399999994 1.834112317097067 10.0
0.359625792 4.298971443251903 10.0
2.48879424 5.531437899011522 10.0
4.616698319999999 6.762384376264451 10.0
4.61700504 9.222595024461933 10.0
2.48981664 10.453777614880948 10.0
6.74795928 10.452567534904748 10.0
0.36075383999999994 11.68838384620824 10.0
0.357126024 14.155707403534116 10.0
8.879049839999999 11.682805672659414 10.0
10.303338239999999 1.8463164163692298 10.0
10.30245216 14.14340000475179 10.0
10.30139568 4.305656397266763 10.0
8.16987912 5.535053381867241 10.0
6.03672672 6.763048444544072 10.0
16.690560719999997 0.615856922521357 10.0
16.686198479999998 3.0672871123549497 10.0
16.687817279999997 5.531600226813207 10.0
1.77715272 6.762546704066136 10.0
3.90630072 7.992268344269984 10.0
6.03706752 9.222314640077203 10.0
1.77732312 9.223303363960197 10.0
8.16793656 10.452567534904748 10.0
16.688703359999998 10.454633525108017 10.0
16.687340159999998 12.91969925028318 10.0
10.29996432 11.682820429732296 10.0
11.01230448 0.616250936367266 10.0
11.0121852 3.0759495141357953 10.0
11.01075384 12.912335470915817 10.0
11.0104812 5.535658421855341 10.0
8.878930559999999 6.764730750852448 10.0
6.74710728 7.992784841820801 10.0
15.26864088 0.6156650805739108 10.0
15.26884536 3.0711387083767563 10.0
15.26845344 5.531201785845434 10.0
0.356768184 6.7623548621186895 10.0
2.4868687199999995 7.993124254497053 10.0
0.35769345599999997 9.223450934689001 10.0
8.877226559999999 9.223170550304271 10.0
15.268334159999998 10.45410227048432 10.0
15.26830008 12.91450476062925 10.0
11.007822959999999 10.453143060747088 10.0
12.431480879999999 0.6159498920805041 10.0
12.432043199999999 3.076156113156122 10.0
12.42986208 12.912305956770055 10.0
12.4305948 5.536160162333277 10.0
10.29892488 6.7646422084151645 10.0
8.16790248 7.993625994974988 10.0
14.559333839999999 1.844442268113408 10.0
14.559163439999999 14.142352252577275 10.0
14.55975984 4.302645954399144 10.0
14.55737424 6.763373100147443 10.0
16.68699936 7.993271825225858 10.0
10.29776616 9.223480448834762 10.0
14.557868399999998 9.223185307377152 10.0
14.559333839999999 11.683012271679742 10.0
12.427612799999999 10.452980732945402 10.0
13.141367279999999 1.8458884612556956 10.0
13.14029376 14.142426037941677 10.0
13.14106056 4.304859515331217 10.0
13.13870904 11.682746644367892 10.0
13.1384364 6.76508492060158 10.0
11.008214879999999 7.994127735452925 10.0
15.26703912 7.9928881413309645 10.0
13.13772072 9.223332878105957 10.0
12.42771504 7.994275306181731 10.0
