N=251, ave_E=-5.7332179282868525 
1
29.82 0 0
0 22.13560932073025 0
0 0 10
C
251
C
2.627267244 0.44021971680509075 5.0
4.044665520000001 0.6350949805820036 5.0
2.256547986 2.1123104414790728 5.0
1.787234862 21.293460064123067 5.0
1.1531841299999999 1.1729770057101563 5.0
4.75602162 1.8802717032135858 5.0
4.83328524 21.693074219190212 5.0
2.771417124 3.3719395034361597 5.0
0.326490234 21.36564428611797 5.0
29.494305960000002 0.5604758415618221 5.0
0.1779753024 2.2773778937446902 5.0
6.19200372 1.812136084163446 5.0
4.15383654 3.202070837508876 5.0
6.22853322 21.738673574390916 5.0
1.9820817240000002 4.674310213430645 5.0
29.379230579999998 20.256893750851912 5.0
28.08882972 0.6541803029383373 5.0
29.48828232 3.5588083173217644 5.0
6.95637978 2.99939719856827 5.0
4.93831128 4.305398148491355 5.0
7.0776279 20.55056687971004 5.0
3.01945392 5.737749156417168 5.0
0.899171406 5.821133996728358 5.0
0.2325554448 19.083617914415925 5.0
27.990483360000002 20.35021747974811 5.0
27.445433400000002 1.9291604099593507 5.0
27.3258552 -0.5712558833010176 5.0
28.11423636 3.40408040816986 5.0
8.3589933 3.033486036922194 5.0
6.30773514 4.199213630579812 5.0
4.33719972 5.557056177532046 5.0
8.418901680000001 20.481702999113246 5.0
6.67547538 18.742928751360566 5.0
29.34947022 5.722741213297713 5.0
1.404152232 7.133443595307852 5.0
29.37729228 17.86514116374701 5.0
1.636011678 19.15400915205585 5.0
27.16518504 19.273718527262357 5.0
26.00476956 1.7171499710072606 5.0
25.87278624 21.521943823531643 5.0
27.41117022 4.60929792885566 5.0
9.031643039999999 1.9385370540676121 5.0
9.0877941 4.185887993768731 5.0
7.03629738 5.331693539037691 5.0
5.0399080199999995 6.719419158572913 5.0
8.95327608 19.10987074707031 5.0
9.03384972 21.739824626075592 5.0
6.04892736 17.256456178645568 5.0
8.12529396 18.029564469781395 5.0
5.23078584 19.63366567042675 5.0
27.96588186 5.733764746739436 5.0
2.6785337879999997 7.89271713061822 5.0
0.1992086334 16.615010491749445 5.0
2.403250458 18.02097585336495 5.0
25.75541472 19.38893437377676 5.0
25.11327084 0.570815384675535 5.0
24.6517467 2.627054114184266 5.0
25.77438024 3.2201999015425535 5.0
26.0519448 4.511369993220749 5.0
8.3181399 0.7522432657901044 5.0
10.44830178 2.0256738801586667 5.0
10.504810679999999 4.239035591747805 5.0
8.438314499999999 5.29707344606007 5.0
6.4056342 6.550945036032834 5.0
4.17110232 8.01461793114748 5.0
10.237981320000001 18.785982511489387 5.0
10.3913754 21.927512457506065 5.0
6.67106202 15.993597531288584 5.0
4.66420584 17.0882034121987 5.0
8.81610408 16.650648822755823 5.0
3.70951854 19.8953307082071 5.0
27.1845084 6.837534769908329 5.0
1.686461154 9.264283755349307 5.0
28.97096496 15.516641557254811 5.0
1.772074374 16.746496011114584 5.0
3.76048092 18.170369080670557 5.0
25.01522268 18.22553101909782 5.0
23.580612300000002 0.6302716313110166 5.0
23.368741200000002 2.9954791957185005 5.0
25.13128212 5.552961089807711 5.0
11.10404358 0.9215076295829324 5.0
11.16711288 3.1534610394405522 5.0
11.23059966 5.38561588334299 5.0
9.1727811 6.403721098440658 5.0
7.2063012 7.552824849498406 5.0
4.5989895 9.401347448263268 5.0
10.86628872 17.596503409030625 5.0
11.1683355 19.661866436701363 5.0
11.20101822 20.96392724816536 5.0
6.02635362 14.660104154589154 5.0
7.9750608000000005 15.637767611457848 5.0
3.99877254 15.762391091933559 5.0
10.20353922 16.463957093744785 5.0
25.75735302 6.781863712466692 5.0
27.83720856 7.982255670320574 5.0
0.17382465660000002 9.211977310524421 5.0
2.437287006 10.52568145249112 5.0
-0.515704098 14.221265699805675 5.0
27.62632152 15.844757694215996 5.0
2.5879287 15.643434327443956 5.0
25.774917 17.10520356015702 5.0
22.67578404 1.8150535574719182 5.0
23.07453708 21.514926835376976 5.0
22.86860016 4.286095897163677 5.0
23.67317358 5.4670306544246365 5.0
12.533584560000001 0.8490732752027067 5.0
12.564150060000001 3.1751760721841884 5.0
10.50472122 6.48956299138645 5.0
8.54006034 7.467182177036502 5.0
6.85376916 8.821660111371985 5.0
5.87579244 9.70024458092109 5.0
3.80837184 10.57415843690352 5.0
12.303851280000002 17.841743824694994 5.0
12.62900856 20.5275679816258 5.0
4.6969482000000005 14.547389631927995 5.0
6.53350236 13.175911549634192 5.0
7.8064585200000005 14.212632812170591 5.0
10.96937646 15.326430266361777 5.0
25.017489 7.9471043227192535 5.0
29.25061692 7.986129401951701 5.0
27.118606200000002 9.1252499932058 5.0
29.140909139999998 10.401766311513674 5.0
2.0572877640000002 11.892311836343683 5.0
28.63089768 12.97458818286215 5.0
0.761883108 13.822271341799514 5.0
26.4066537 14.988995037876563 5.0
27.2177577 17.18221334498384 5.0
2.040487176 14.370946690032454 5.0
25.248981660000002 15.80185888335242 5.0
21.401814 1.8847541641010337 5.0
23.91659424 20.400066871938396 5.0
21.47687094 4.365452056578495 5.0
22.976429279999998 6.686171473373176 5.0
13.25507946 1.9890660094640429 5.0
13.257643980000001 21.75073748147071 5.0
11.08427292 7.723778160282406 5.0
9.09456324 8.748391244520368 5.0
8.028259680000001 9.557979019816756 5.0
6.45919092 10.927951880676751 5.0
4.5304035 11.949864420577583 5.0
13.00023774 16.70793577967787 5.0
13.213570019999999 19.24007240109485 5.0
4.05152412 13.249291094532413 5.0
5.8073555400000005 12.014124094435664 5.0
8.1232662 12.588897326057745 5.0
9.20033478 13.780103006043522 5.0
10.50731556 14.069105521334977 5.0
12.32061012 15.420882911333333 5.0
23.612012760000002 7.919744709598832 5.0
25.70484 9.110352728132948 5.0
27.76960662 10.306848818746381 5.0
-0.331875726 11.779176737105432 5.0
0.8614699800000001 12.417191404556842 5.0
2.778752844 13.194948173650019 5.0
27.40001754 12.73873326554977 5.0
26.35065174 13.633830899652137 5.0
23.85811722 15.504002124332674 5.0
20.72576478 0.7508420817201021 5.0
20.75683722 3.1456693049596556 5.0
23.19885666 19.25811292269124 5.0
20.80001658 5.614830117859152 5.0
21.59015712 6.786534326033367 5.0
14.6170185 1.9385348405066798 5.0
14.626739820000001 21.72092081571569 5.0
12.63643374 7.65356400751705 5.0
10.37044176 9.200865234645415 5.0
11.95910226 9.115643138760603 5.0
7.90894986 10.920846350084796 5.0
14.426468700000001 17.028149504111557 5.0
14.6015121 19.30169793744376 5.0
9.31037058 11.631997070731897 5.0
11.32506942 12.977465812073843 5.0
13.066229400000001 14.107754295208974 5.0
22.6791537 9.18977529437573 5.0
25.02607716 10.273379777453437 5.0
27.011075280000004 11.42930129618197 5.0
25.237739519999998 12.735678551463508 5.0
23.29952898 14.167520440374943 5.0
22.94061546 16.623067853542192 5.0
19.4046195 0.7772055924210919 5.0
19.39922208 3.1570470081505104 5.0
21.841778280000003 19.36781700248478 5.0
19.38973932 5.594111187534949 5.0
21.34432104 8.195797893437659 5.0
15.30803736 0.7499987150049824 5.0
15.284002440000002 3.0846857012810434 5.0
15.312599819999999 20.505255287430504 5.0
13.3368459 6.497376861476668 5.0
13.54829952 9.069423986498919 5.0
11.3067003 10.598596149593606 5.0
12.84278814 10.541087836578349 5.0
15.24034596 18.17231701429078 5.0
15.56735208 16.08247200271132 5.0
10.675470540000001 11.765297710061336 5.0
14.72607024 13.397068422357606 5.0
14.36122254 14.974429806943524 5.0
21.544383420000003 10.396608714541943 5.0
23.70788406 10.39107481221176 5.0
25.69816032 11.407851890750182 5.0
23.949575160000002 12.932264897840913 5.0
21.91796838 14.049913948053904 5.0
18.71717904 1.9569162504866144 5.0
18.7956951 21.75332734776124 5.0
18.706294739999997 4.336697900070867 5.0
21.12350394 18.24613927137542 5.0
21.095711700000003 20.64601562710103 5.0
20.0836209 8.783166286763235 5.0
16.68721236 0.7482654967951692 5.0
16.66541394 3.0887586533960576 5.0
14.59691982 4.250723193469151 5.0
16.74187242 20.51238295363178 5.0
14.693924280000001 6.550812222376909 5.0
14.90737584 8.95732926089874 5.0
13.743352139999999 11.543056192481203 5.0
16.69568124 18.12899762685011 5.0
15.82347606 14.47899059912694 5.0
16.80151242 16.73538393523558 5.0
15.815931599999999 12.383987990575745 5.0
20.193179580000002 10.15012870475561 5.0
22.00247826 11.667901029050121 5.0
23.2694406 11.724346832817984 5.0
21.27919416 12.753475581357375 5.0
21.14738976 15.167828625578744 5.0
17.35386828 1.9332577112446179 5.0
19.609751279999998 20.63494782244066 5.0
17.40408516 -0.430889557476403 5.0
17.34244722 4.257718046014501 5.0
19.7813952 18.32952411168661 5.0
18.9289905 8.111660442409562 5.0
15.318862020000001 5.397392027501619 5.0
17.49953898 19.334945622643495 5.0
15.46008954 7.739029595104389 5.0
15.69504132 10.077590313011578 5.0
15.096375 11.297837912426154 5.0
17.15416374 14.545950817322147 5.0
17.66444358 15.727837405783898 5.0
17.21943972 12.343258469425603 5.0
19.32377748 11.25257059136526 5.0
19.94290032 12.56963934594871 5.0
19.80155352 14.958071591655504 5.0
18.99223872 19.440355394228813 5.0
16.68297792 5.371515500205685 5.0
19.0436484 17.290168711641037 5.0
17.65257522 8.701950736165477 5.0
16.817943239999998 7.6547150592017275 5.0
17.124135000000003 9.98249573536972 5.0
17.88224886 13.506108433871523 5.0
18.93695244 15.962873305551412 5.0
17.90172132 11.155749436196386 5.0
19.213741680000002 13.657139696266865 5.0
17.40828978 6.478450915507444 5.0
