N=188, ave_E=-6.4917760638297874 
1
24.700943941006134 0 0
0 19.01479551143708 0
0 0 20
C
188
C
2.7484493313718117 0.5449222068076616 10.279480163839555
1.7152829491513482 1.7495722512823881 10.878333095817752
3.653072001323279 1.717813739819186 9.34594683649167
1.84599293420397 18.416951325761985 9.775430150508175
4.119870439920413 -0.001544893189438177 10.981485629317866
0.33572781976297306 1.5424478867354066 11.208084899086533
2.093508742964822 3.1102881313967856 10.517560154031504
5.150887840018009 1.630050951136148 9.534277038182722
3.056964121194978 3.130576918207489 9.421093370171349
0.3543992632879796 18.520144621002554 9.753338461208827
2.4306963885147086 17.021550557155177 9.684048254613753
4.312809513043613 17.543240486806965 11.269605325193123
5.304552412275008 0.7494168251354115 10.661475043377926
24.311928774879227 2.75878062157236 11.594602486670443
24.347177021883045 0.35569266631649316 10.664606148947914
1.501133175466007 4.307896997093628 11.157117458419524
6.043110636111092 2.80667889146567 9.148861135891952
3.917643811875396 4.295974720307957 9.268712899098663
24.313262625852044 17.39435463795241 9.142135057260127
3.5679772494465127 16.58314543184348 10.48839448548144
1.5620407630357402 15.869957496596012 9.47495998266242
5.653650852993248 17.12358394986955 11.913221470134832
6.54535492926357 0.3177733611075853 11.188022630064022
23.12205960429702 3.265772114293807 10.962177144969612
22.905679335373808 0.0012714128929949334 11.01471013842161
0.6534140700714353 5.263846826635615 10.465954895563208
5.301316588618737 4.075079840851592 8.834185026108287
7.522499570625831 2.7564037721334307 9.236242174669172
3.580228917641252 5.632638785579937 9.755135947739745
24.896328407579496 16.05634052219912 9.035793434753543
22.810160785153936 17.305308350572354 9.162603210338002
3.431035216237575 15.123208447270855 10.832816098179979
2.076069876542472 14.720551137520664 10.241153112325456
6.666290750798735 18.15076320339738 12.054121220784229
6.012185054296952 15.693291031499252 12.194325170195857
7.828568966998838 0.9923346407531225 10.943564461859136
22.08573150125211 2.376678305770032 10.575891491131628
22.781927606229367 4.705154104918571 10.831888363196278
22.08671953900975 18.082043732419045 10.155453593206193
21.90808231242839 1.1080282625629103 11.29227684885728
23.90913048203324 5.637715735981491 10.856125439645435
1.1781559829653814 6.420364719232241 9.758383020182695
8.179248268129303 1.5700896949703826 9.673843169793052
8.266195590801644 3.989608335027682 9.217861425304623
2.4936837955642743 6.418577328454166 9.122246738547066
4.602403379807968 6.369975511126933 10.514892915953368
23.801780179665627 14.998319270351736 9.023558929656001
22.52570471472931 15.861914238094675 8.882543212133637
4.571057881946831 14.197587216569609 10.682986898312468
1.8443750223758344 13.400639107094259 9.82535388931852
8.11831103942684 18.137528905721418 12.535557693887927
5.848664805407491 14.634204951103229 11.225074045975536
6.995801342971758 15.343152586951648 13.23141691509922
8.759572245079301 19.36238597338615 11.886259172171055
20.823562667754576 2.799149032443141 9.814453003260049
21.399860390842193 5.130210843781236 10.487988601426071
20.605502734643377 18.443762187433112 10.151858620144356
20.43864785832188 0.716488903748256 10.97412173288475
23.751192646474447 7.093697643087739 10.490771806377175
0.31639192084595347 7.609569045313028 9.826861458667032
9.71772186055093 4.081563886120992 9.213918551623898
7.562243389426909 5.232358325268676 9.292138207437084
2.77688011784791 7.621833588417904 8.408180718280654
5.710685332553031 7.175404219400384 9.970196513648645
23.842931952271346 13.485844405781007 9.240069081476936
21.371898922300975 15.428757196344138 8.135948484001258
4.411761494471282 12.86202600943729 10.017974865309185
3.0501466606672603 12.501163220221239 9.516360156310018
0.46988358649536555 12.758224240740356 9.579388151765123
8.958167834364989 16.97730312800006 12.91621895438723
8.451798483574363 15.581522063483023 13.032881628587479
10.184347392540475 0.5110397426858319 11.790760452286463
19.752109822425556 1.951602552111856 10.304644975272407
20.449787984039276 4.2198394790801625 9.858230497803383
20.713766971936806 6.230977355938328 11.069272552150458
19.502259774462278 17.497643007170538 9.921142526385523
22.583751932990673 7.967598629997876 10.815131150053201
0.7347196971476511 8.880917288003221 9.269814584391806
10.684665012065553 3.1013701923019217 8.54931240267598
10.423254922337886 5.519538781877909 9.039968242180194
8.202121342218673 6.531354080632499 9.209569793887805
2.16185872494398 8.8569396308633 8.710506356093813
5.669928775050371 8.646046533845952 9.637255621373395
22.62660807072832 12.696521229305745 9.083687753287041
20.598265358068662 14.290683655393606 8.51301477143873
5.587304117567705 12.013376670966343 9.677380159418409
2.3604790151736106 11.260010472803206 9.124160191950946
0.9247465289802053 11.369383576584992 9.266625495385341
10.393366780169268 17.197855741137218 12.90137519464804
9.41627154069489 14.426829591255494 12.744472015529816
10.920386120094577 1.2105883651129485 10.579892348248833
11.015855268426565 18.504191207568457 12.502797052276026
18.661563147430133 2.853189081286645 10.848471626029912
18.872237498302976 4.4527707240952665 10.436209392648326
21.191631433419513 7.553152147030594 10.87798519519886
19.227634679726172 5.935240241348947 11.054370808974777
18.643136243250144 17.478514122886033 8.742339262722012
22.56371946745452 9.504469477209778 10.883087737609205
0.11679767239672928 10.196265767506883 9.55491914157004
11.22074959841721 1.8221155976380718 9.11296938871007
11.647087890838977 3.8919483452809414 7.6836776794476265
11.590769738653481 5.3445646335816654 8.036738824181867
9.596563730520293 6.713116510926326 9.088326428205544
2.9377079638478003 10.03878523108116 8.735091333161861
6.646035976767111 9.590853693218236 10.113879469249145
22.500460350021605 11.234967987114644 9.2815852219975
21.177798904812548 13.188852314687871 9.256826294620009
19.198191154548493 14.182337350569437 8.171898214619624
6.249487022738198 11.019948679471314 10.552814083412098
11.29949620770114 16.09714627336666 12.35586702423258
8.977780383854148 12.99391263110462 12.574812480385717
10.746936091740832 14.744414705887518 12.243379157458982
12.189668825447116 0.24734446001277352 10.670172558850112
12.2732074178556 18.245342796271267 11.760667048752698
17.327959184055214 2.394419109982203 10.550784663135254
17.534063860298968 4.602227016815162 9.700167649955535
20.29698794482021 8.657379351970768 10.874564172446465
18.268645232160548 7.2134338104232585 10.859662429270792
17.258623634412807 18.081530332940236 8.738802273096656
19.046255648367364 16.64524775398384 7.657121265539217
23.417952211766334 10.369452525025052 10.012408455406987
20.92125490104126 10.021519796756776 10.864011187006884
12.523279774314346 1.3102734305816575 8.56931668826201
13.022782262689372 3.47354678484728 7.438059842513113
13.103183835217346 6.144745258293961 7.967390634150306
10.147518285124434 8.017284290669261 9.34559893587278
8.063894859924803 9.092970287546768 10.752682988962913
21.074277248755788 10.835505163010373 9.638067389484128
20.284983286064882 12.063898982640232 9.554165356895783
18.29248164306362 13.157344798525422 8.854131328257832
18.540528522119207 15.325278679170896 7.447511142659554
7.294361652386698 11.334092116115766 11.621854701816623
12.350595475222773 16.75804352095768 11.5051340441799
10.096362630222611 11.937241429738549 12.34235688353245
7.63123312585414 12.68838289682685 12.122773609578015
11.412873540390356 13.76743451250988 11.452890967910307
12.973577982358886 0.18292689637094744 9.445504396929952
17.23994972079341 0.9786382835462344 10.28075579944214
16.68079445280085 3.4720065864108536 9.690948283555016
17.011984709161865 5.857298594547567 9.142888841934383
18.882562492870317 8.464816517826444 11.129459359217979
17.108021979204494 7.150742029622051 9.888787768828994
16.00789133795996 17.34839587720127 8.26136665711017
17.00731623075701 0.45719554623609543 8.979549501366748
19.34931152957957 10.771767568456038 11.080811256010218
13.496669872197574 2.2065149007381817 8.023054733172295
13.874816622990437 4.6174768828153345 7.468617113538723
12.675906906925825 7.75885420487332 8.022590865680442
14.805572891631488 6.61671149768334 8.214516040433331
9.526981171438479 8.988579060188979 10.256576706429467
11.541812467762409 8.371358797887732 8.927190458224189
8.247472275294362 10.248860691891517 11.789890700739246
18.82056312357839 12.180269531170227 10.053228794689772
16.85239191035902 13.183185905625464 8.568215002968863
17.098833228058442 15.103851385440214 7.113816465710048
13.20245692891625 16.163660028065667 10.46914398456967
9.688006624989898 10.59093686314227 12.027622790312307
11.428484536961072 12.39228450112275 11.835175764631085
11.913413468410905 14.090115592338966 10.195230230632319
13.873112257858509 18.16188685877157 8.98175287195303
15.688656338466402 3.2930013014661847 8.62956147876601
15.855486513843955 5.675479119867205 8.216603444146656
18.20995578935672 9.791668948614523 11.319239146821058
16.049314820949032 8.260768747193213 9.490267609893465
15.327479136161008 16.32471534604754 9.135582928937751
14.974527348187973 18.485765870717877 8.076573445044474
15.65061688479725 0.7820043816829124 8.297200420855575
14.935796268088474 2.0732211842030077 8.390843670772767
15.27059286226487 4.431493167917969 7.923033305242161
13.876891502281481 8.700200671462524 8.194105870791937
15.096401805592896 7.9749383410652905 8.443318680788284
10.403889382288138 9.803629254991218 11.046716995359251
12.171637136370181 9.621296380832048 9.412569805008609
17.235182438612792 11.705051761748392 10.357351919033853
16.199447158222466 12.482642809393099 9.610409290282583
16.24477339035421 14.319795307321614 7.982292377325987
14.18029319670886 16.95555020193498 9.800536978504553
13.118449018572889 14.776188429187128 10.052706943761446
12.30835686108365 11.43352048184507 11.053385090554599
17.020630039541214 10.334427271692984 10.73018541560819
15.877248045455982 9.568226086559626 10.285742374979527
15.275236639725781 14.94028611445083 8.85250779203636
13.539303701439751 9.834109972196051 9.001873124412022
11.648347638979969 10.252663650993803 10.512283661311713
14.809179229446878 12.772865633284164 10.08024907609003
14.301352522963732 14.103311860423904 9.5689511331985
13.95981257109144 11.597351959971611 10.720908065771198
14.478631197628333 10.305810004448272 10.049285921009051
