N=108, ave_E=-6.378181481481482 
1
24.371436101544596 0 0
0 11.725712661470427 0
0 0 20
C
108
C
2.875439517004638 0.9386773031174259 10.177064776371548
2.0757079013377226 1.9565993175436014 9.059354102390621
3.4337647466549224 11.58627048650022 11.250380533885814
3.734946953997811 2.139579063625847 10.737951066370474
1.4517772028456897 0.3703249749883575 10.730799823382931
0.558118072443422 2.0159314236106414 9.30564291088158
2.7209489835569465 3.3036843652313084 8.892243856257732
4.064594998707303 0.5234651274896935 12.389087257278167
2.6963825759665894 10.224235155169138 11.338941527043538
4.369359807157118 1.945882016171017 12.014247704843147
3.800359888494356 3.3861513023794294 9.891015056869854
1.2014508712158947 10.640697291766584 11.035042305044936
0.39097632651541897 1.3254862849652784 10.53771626271929
24.143782516920066 3.129815497887025 8.886923331475
1.8926881647895635 4.4657376671210125 8.587715324876225
5.302761438410174 0.0035213370436535225 13.050262578934383
3.2726939254598144 9.03279721734979 12.038333091225187
5.820922541365114 2.310070925723627 12.191312481214691
4.3911966139041025 4.674220838241956 10.317801238366382
0.11604337442569952 9.84761699019537 10.203610190341305
23.523334496646946 1.2193216825283253 11.186133766885735
22.71395910371465 3.184633204579399 9.229782525269734
0.4911916717649704 4.2859942177333314 8.519521071747022
2.4850091106578933 5.807018487041291 8.812607614348458
6.469519570335521 1.0180615504068469 12.832407112561896
5.536946567909917 10.2799088388858 13.247522465502755
4.324589479038581 8.127607377022256 11.384537852332112
6.446537306091765 3.3605423459267785 11.350383515823605
5.683321413135793 4.623800273797634 11.026403603515984
3.6239106911191734 6.001090757301289 9.848908538159204
0.4997094886824602 8.813198070625772 9.153750509826182
22.786659097605558 10.02186108034482 10.463343335648844
22.387966774420388 0.9630550597406229 10.46992247919739
21.91655008590821 1.9422353195333 9.517548543088438
22.104039543837395 4.457295154004753 9.568179343440239
1.690149345067677 6.877775390148787 8.273575522919462
7.774658716445437 0.5285892639227561 12.459341068387786
6.360384279472805 9.4579129298914 12.377416428722501
3.9032804631511793 7.486398505842409 10.145828147001968
5.76830461082188 8.201455915364198 11.749365664584573
7.660965967031732 2.998780658895093 10.595212256339128
1.876790677020526 8.260494878614702 8.746472919199665
23.88030292122627 7.776058785718712 8.723188472032227
22.03531209403104 8.75737195264451 10.276266819094737
21.854232323796563 11.32176186028277 10.386796430710195
20.549897435077995 1.8054548813372475 9.032465428757465
21.321009673330867 5.416681238253602 8.688061566477419
0.2526123723361199 6.678238937788544 8.05560563665917
8.325233829415431 10.99863639647063 12.846652388593078
7.836172221165736 9.70735401533886 12.40001435656313
3.1118180757535185 8.538769491496717 9.38430658374455
6.667586231532773 7.323622162675876 11.100433270923027
8.7239261526006 3.9157079375967574 10.31208024397635
22.622151903920134 7.572183819673726 9.443747715457004
20.558232466224727 8.706552713969698 10.096913644967174
20.4221667384698 11.188205993068623 9.953945995160225
19.76294376335912 0.625612500768827 9.315997910727543
20.34515300038892 4.863626274862688 7.68803174709949
21.440868396078265 6.855320650402071 8.871076177014604
8.70313731760598 8.67402558704678 11.781059973505364
8.074792952035958 7.521188695308991 11.019710040079644
10.103812493233953 3.755827845457608 10.877886589150709
8.380215789260514 5.225200350491789 9.887468040348033
20.2264641065744 7.637542942048762 9.177950316096023
19.73905975597961 9.916845597748692 10.05841135272225
18.297903624986972 0.5920664094156263 9.064560207285552
18.898951982123265 5.1330831518232785 7.667665007070969
10.108906123379176 8.592508432624237 12.063104996934037
8.934812189187264 6.419346927935939 10.546469384136042
10.57096418042836 2.437388713801873 11.429562078181679
10.934244806957983 4.970506145771991 11.065020315648713
19.026902021656372 7.653501636981024 8.333531544127016
18.335362522275048 9.854324097837731 9.59649826567091
17.637340220890707 1.6763547849344582 8.474668475729153
17.561203854509483 11.174510360680024 9.501186499132942
17.937255113556315 4.012187101375336 7.52755785445904
18.349205497980723 6.466355309995773 7.791524535615203
10.87485161717852 7.421180092019309 11.680141632465158
10.309799871164207 6.292709231192058 11.029492940486605
10.075176055814637 1.1539508344406275 11.003233576236347
12.336674725985265 4.903317812221765 11.404732962528929
17.998281189554582 8.653247624210653 8.723302891920028
16.235275873404948 1.960703316975116 8.782286344081278
18.404358057878518 2.6444530736907796 7.7456421606071295
16.12550692520359 11.405307562995747 9.977859751710568
16.475066433208045 4.2436409436001 7.643922880352328
16.87890112941064 6.684664628327029 8.00812138322189
10.366999631694533 0.5370763347471283 9.70308039115724
13.229229830332132 3.7844620357769188 11.096771834513408
16.631872253085383 7.925737507842382 8.716952588147095
15.405769674252777 0.897569299668843 9.418575340140855
15.719893114165583 3.251751183853656 8.377926460593681
15.339162539387255 10.296430368025812 10.592637808863614
15.946279384112833 5.584183043622707 7.873849644887795
10.768811498700698 1.227541407104016 8.513342397805783
13.588221084107886 3.356942552139707 9.815383511033605
15.683019131343947 8.020985471791507 9.76200663337459
13.871149085810716 0.8573536229537978 9.391629456563795
14.650401383721505 3.9757201349981623 9.101689460876873
15.986516625116483 8.99930858198863 10.772505872486285
13.879167288288125 10.174131184966676 10.18747698616141
14.731875094608968 5.430130630676309 8.708599936337642
11.896161018449847 2.114826084197483 8.418488310819022
13.04854000307528 2.094083298499342 9.31021970639361
14.279687469180907 7.769117163823123 9.575216166539981
13.196596477392164 11.355062884241345 9.755484699769951
13.368829416321779 8.854109082101642 9.80582945040225
13.836371046493813 6.485679284461877 9.070681671282891
