N=182, ave_E=-6.324234615384616 
1
20.758430602186124 0 0
0 23.969770992252965 0
0 0 20
C
182
C
3.0086023808972437 0.48596793105113506 11.083180756267314
2.5082826865233536 1.2683053015817833 12.237934242272868
4.213214108742105 0.9574916781023384 10.361138218025637
2.5883479533559854 22.983534764776717 11.058913858521098
3.111232061794452 2.552445033881049 12.446921935152346
1.1008050439325086 1.203284900788198 12.48224050440226
5.530336530450814 0.5212490369746322 10.880332880889899
4.469290108650672 2.3891749387673182 9.778089453140009
3.4978993486213725 22.14605493607839 11.889251082608546
1.1223522948975777 22.774014996533435 11.512851032506369
2.6572244260940394 22.30564567134481 9.695465051898069
2.563811488384202 3.7342026833411053 11.87434009724641
0.4220002115549019 23.91111696263492 12.154725096506926
0.38165620167955316 2.4812787838050503 12.292549380814958
5.706326505096149 23.4179868640113 11.801597878460157
6.526803474647554 1.4970943687257388 10.63175798373527
3.566070034718952 3.4657652179988636 9.613425395180133
5.98143798586692 2.659014635712606 9.84176813180418
3.672789126444791 20.73284517791714 11.58424833888741
4.594152068722822 22.83144656783087 12.504987066386064
0.3078662084179622 21.614381445699227 10.939918347886032
2.2635615481541813 20.88977526860342 9.532204380795804
3.1408958591249756 4.366693030513684 10.730053538220545
1.1313386195052642 3.720731672043459 12.016842337746493
19.740997643081176 -0.0762917062072725 12.017777928984895
19.728542584719865 2.463373364873837 11.950064513105087
6.997231028954297 22.805750973327175 11.849546929428591
7.4230071990357365 1.8699082018537452 11.693420141519187
6.765172533252458 3.803163714485817 10.48475321040035
3.190010305929748 20.056010754408895 10.351548407831952
0.7766372399626497 20.715898549825617 9.82381647491722
3.1691065663133466 5.818685878140399 10.567319137189887
0.3612963329449291 4.941152562114018 11.654651579577642
19.12005070847798 22.890100597448914 11.071076544620407
18.98746661222182 1.1986851017347848 12.120926863019424
19.08804120848941 3.5813714234944998 11.211473704834066
8.180150196819874 23.4823456991255 12.41329912502204
7.090706241955941 21.46890890554724 11.330001419849928
8.43375594348678 0.9651116683007757 12.199867373760132
7.695586151273043 3.350350770671166 11.568635660096469
3.813780387094839 18.86344273823133 9.861298598905957
20.62709201176609 19.815402193188657 9.0410189806314
2.041523146904018 6.714627978288831 10.857060048834487
19.85392350555707 4.816533722725295 11.008216508289841
1.0132397561233069 6.234034069894159 11.774816579260719
17.913238586989287 23.637334238361408 10.629185107829642
17.809965394743415 0.9571345285145538 11.31479806222579
17.75817311039096 3.3822305660908625 10.60772498379865
9.34882908129235 22.580171458519082 12.694853613330565
5.983264727759914 20.813719185245002 10.637430005618121
9.819028292862466 1.4131306579169758 12.132914125761527
9.124762581372352 3.7654352949440106 11.55436789371074
3.3125058049132483 17.51193117060414 10.22641307969483
5.183733014686112 18.8415583373154 9.298131147836507
19.105665116070668 19.911856551661483 8.957108141436649
1.719119809535345 7.884232953855814 10.069526123904222
19.35902176157035 5.809793093102273 10.058591401305321
17.105486535397024 23.39502382340072 9.48817311813821
17.139405811000994 2.0622200715016903 10.582639443718822
17.079393188130073 4.600781814024026 10.212086838856706
10.663896418371442 22.99209197302095 12.289157862575728
6.123384134324669 19.941986553798746 9.50735273852558
10.759073822682465 0.40619173923471874 11.81645038936989
10.152201104027554 2.7246918082313787 11.588049178293442
9.597079152863893 5.154459554174077 11.175804288869745
4.366847253628884 16.50503300053257 9.741192073675279
1.9230028873808365 17.22882420541464 10.474520181230254
5.749171905859059 17.28254046220828 9.017395301861587
18.152147364789847 18.75203124265934 8.605384310247494
0.3847242977225563 8.147900434770596 9.426073249688852
2.761909191620864 8.805415222859088 9.363388636715491
19.84636743681787 7.354381166072063 9.802297876433826
17.89472206689214 5.778105055850515 9.859953686500745
15.846134826054197 0.19221383328458644 9.23404314800553
15.909323488807251 1.6895212932744466 9.811010569841503
15.695636204188348 4.753037799366817 10.649885063979426
11.44898026374612 22.264921030428972 11.248195660941594
7.446671809922228 19.73404879044095 8.99564280556859
11.397769215450527 0.5490659562111417 10.5245743124851
11.395444271223083 2.9421935102150822 10.897816742157652
11.099927253170364 5.384785083638636 11.061954530045924
8.662534607153473 6.222169033252993 10.920387880784254
3.842385504464651 15.32780563779005 9.01113853545473
7.370114717861366 17.34119449182632 9.337659877659263
5.733001088419957 16.18649871381652 7.8033487211219
18.73518940511345 17.487218336711127 8.168697099720376
16.648385893536883 18.82588210708647 8.650702010857898
0.5831748942794557 9.220715475070863 8.404232193989689
2.0331782578019393 9.484071348962747 8.251029128700313
4.093873891210136 9.173782663468032 9.851825737617073
18.50746942140747 8.016522119962058 9.417652928543177
17.310247694856987 7.099366772485483 9.608805913440492
14.605839356004177 23.448788019736348 9.409700403016704
14.625206971756018 2.3282365899737134 10.1113353573706
15.321859902765384 5.745002802110214 11.694882002829203
14.515623216607077 3.825335752653651 10.280677371522518
12.156157719070798 23.187325757752852 10.208870743974675
10.999103555735545 20.92275767348876 10.913721793210595
8.191089889747225 18.5497982847977 9.225330454597852
12.048961183441106 1.8111630871059317 10.310791714508785
11.985336593645407 4.246604477842496 10.865480369980158
11.688698620340165 6.713093912945327 11.554835689329945
4.546532228921407 15.300408189545905 7.739786991362529
3.018670219739304 14.198589726345014 9.545711979300325
8.120573500991599 16.096851770305495 9.483670585303368
7.082319835992657 15.618487050613103 7.325378547200014
17.91570884023095 16.28300101183133 8.215125814926392
20.203620027481495 17.286878990757877 8.119929406418336
15.768975739505873 17.60153017457318 8.605910580319097
20.67626873386267 10.621940347735986 8.258747756417183
2.2368039311079637 10.908331171551426 7.772123363540018
4.684970202607387 10.50324204178235 9.849077438354247
18.098175445224165 9.331839333390947 9.917784919924863
16.36517862483126 7.853287979504816 10.538257334346827
13.606383197800724 -0.032060527492978025 10.389790699701894
13.972541155192683 22.52343501058042 8.503931135332582
13.514298799649426 1.4694404439319766 10.466626130156182
13.8938667032104 5.464844118752761 11.96947803130206
15.383782301251706 7.226861984393277 11.404439397755795
13.421757716024878 4.390303254941053 11.10943578539515
12.516856209214382 22.36660079897811 8.881909995649572
11.073045085540532 20.3755997110486 9.576060220096199
9.494221129230061 18.511326802355136 9.877788394482906
13.076482739818719 6.7199492674491115 11.996844075025507
10.86081089106378 7.901323400573291 11.681374404324675
4.71500765168875 14.101871700391273 7.063354525993262
2.4477511028873793 13.150727217647681 8.682102791796979
9.240490831979539 15.745430957788074 8.627780025516891
7.452899339102884 14.039094870162561 7.284095583805243
16.48607572465839 16.27638535503747 8.627663076612091
18.507988382172524 14.94788476756284 8.520596354266733
20.76901740179324 15.992775024657131 8.372422091883802
14.355804059400846 17.70865108113756 8.251204552057516
0.8920354315232626 11.568147057655173 7.730723451240447
19.650656953100462 11.134869477199208 9.157324666456041
3.186730473894603 11.874432791394181 8.302369697907974
4.5577002645853835 11.506664595060043 8.774901747756612
16.803326819551604 9.325151767284108 10.659708771982718
18.297830030755993 10.58387635140029 9.248661761105662
14.03886434096667 7.74863595935264 11.579628857147767
11.755955935491249 21.147929702189984 8.554102215492232
10.79434239627558 18.984226414261293 9.358476782713847
10.524877208628602 8.932335160263067 10.605736852417031
5.865045465480463 13.287283002990547 7.301287072810997
0.9377953159427216 13.01282912512925 8.252023194391125
8.966209688432855 14.586109013976765 7.699322670301367
10.673258470573028 15.626085468017648 9.158786527766054
8.082751640434415 12.462267455208194 7.666986298123877
16.094696274084775 14.917586977028632 9.208138965592099
17.437310048572968 13.999856355048243 9.139548432926283
19.962905266218545 14.796180086952871 8.617430047442
13.330192278638638 18.54073771136263 8.940501396954897
19.672515580524564 12.560903062841314 9.678098139535113
5.74755274827209 11.956361468645701 8.009938961452953
16.235064781816757 10.708015795369167 10.38920595517789
17.20062242284684 11.560069244830784 9.629096548423473
13.608708142028169 8.948706513850777 10.951905610628138
11.911561131285238 18.047535703426032 9.092184126481857
9.263117521335923 9.561877225603599 10.619946144350362
11.554993568831486 9.564993295832592 9.764347956825887
20.552901380793877 13.539924389248894 8.976814031895621
10.105224775574808 13.600256302836394 7.853052005662345
10.996861645230506 14.190440004207648 8.875185433623514
11.81594779993157 16.624186732135062 9.38362079724607
7.127552456274821 11.512776886663069 8.208635150709934
9.519629448287137 12.269095070781626 7.947371297384393
14.787164247314275 14.1933643162687 8.991257221638552
16.56051545679783 12.629360728795188 8.72104677709573
18.206617486689986 12.883943666503907 9.986901722662282
14.806552621496715 11.045126654604212 10.556559837948193
12.853848571610271 8.941132066217223 9.770078453161137
14.040753358151468 10.220374774302773 11.400521609444958
8.904972318156405 10.616858756285628 9.70020148254251
11.399928092233155 10.98635277613121 9.275267636947898
12.284071168441468 13.63532407779806 9.266671892445022
13.120926539737999 15.993805724809798 9.71131162849861
7.548055984983305 10.60719893857575 9.189719513085933
9.957175648520016 11.347816922694383 9.006168207000687
15.04826378742857 12.805298847878325 8.750517901105596
13.455552441045239 14.611397122373594 9.430049512452086
14.157270429121539 11.823784665287551 9.4761858553961
12.568793802581052 12.141192372766964 9.423968169402436
