N=140, ave_E=-6.9253705 
1
21.299999999999997 0 0
0 17.21658502723464 0
0 0 10
C
140
C
2.3735442 0.6299651760975318 10.0
3.7253699999999994 0.6254974722829644 10.0
1.6934266799999997 1.8717526909908955 10.0
1.6797882899999996 16.603020370034052 10.0
4.4140203 1.9293421679069953 10.0
4.4041158 16.53200195679671 10.0
0.30424493999999996 1.8646250247896203 10.0
2.4091791 3.1256021453543403 10.0
2.3761640999999996 15.346364612311168 10.0
0.29541821999999995 16.6058955397336 10.0
5.744141399999998 1.9192015993259544 10.0
3.7863944999999997 3.1290971121148683 10.0
3.7380435 15.329922773610159 10.0
5.721243899999998 16.55340217198556 10.0
20.898601499999998 0.6232352130103858 10.0
20.9094858 3.0898260816677463 10.0
1.7259219599999998 4.340215002440717 10.0
1.68085329 14.125088936819251 10.0
20.894639699999995 15.374014447864907 10.0
6.655930499999999 3.0800642779573044 10.0
6.171206399999999 0.6412282660223487 10.0
4.5555375 4.3487716451992515 10.0
4.4611358999999995 14.108182250322507 10.0
6.704835299999998 15.444636879646623 10.0
19.500725099999997 0.6193339348432144 10.0
19.506795599999997 3.082836148146689 10.0
0.32127641999999995 4.329540719723831 10.0
2.4502241999999996 5.569461956800243 10.0
2.3643851999999996 12.873925269720056 10.0
0.29364606 14.138896638011094 10.0
19.498680299999997 15.373652899579334 10.0
8.215836 3.0481447293168116 10.0
5.999698799999999 4.328972572417932 10.0
7.439088899999999 0.589707635328349 10.0
3.8725742999999997 5.5664662710055035 10.0
3.7335917999999992 12.783297166136693 10.0
5.9248506 14.231074234246908 10.0
8.377247399999998 15.418037255779547 10.0
18.7993374 1.8478560709730938 10.0
18.7959081 16.60308923637416 10.0
18.804428099999996 4.30900133378634 10.0
20.9240337 5.547493594305491 10.0
1.7553755999999998 6.7848323436278175 10.0
1.6858758299999999 11.677234877647031 10.0
20.895938999999995 12.911491858249482 10.0
18.7962915 14.143183567682875 10.0
9.1151433 1.8482520524287203 10.0
8.9035917 4.302476248061018 10.0
6.742387199999999 5.537043127193959 10.0
8.655041999999998 0.5995899551339817 10.0
4.5963483 6.771713305837064 10.0
4.292312099999999 11.34116713791541 10.0
7.1953317 13.245665773628106 10.0
5.9474499 12.625403864851924 10.0
9.1472211 14.189427315066029 10.0
9.196828799999999 16.587559876679595 10.0
17.391982499999997 1.8466681266062146 10.0
17.389532999999997 16.602641605163452 10.0
17.393345699999998 4.30738297479378 10.0
19.514229299999997 5.541932637341694 10.0
0.3381928799999999 6.7785482900928775 10.0
2.4737394 8.007898543962567 10.0
2.3945247 10.454702391448125 10.0
0.30311391 11.67904261907489 10.0
19.501129799999998 12.912421553840952 10.0
17.390576699999997 14.142753153057194 10.0
10.453145399999999 1.888297829202068 10.0
10.338679199999998 4.317609626299958 10.0
8.179668599999998 5.529708861972358 10.0
6.043640699999999 6.7584565353660935 10.0
3.891872099999999 7.991818253547129 10.0
5.698516799999999 11.32417436849353 10.0
8.474993099999999 13.002498726703443 10.0
10.511017499999998 14.153634034794406 10.0
10.544820599999998 16.583324596762896 10.0
16.685695799999998 0.6159457109098546 10.0
16.686718199999998 3.078015504339063 10.0
16.683352799999998 15.372551038137592 10.0
16.685312399999997 5.536957044268823 10.0
18.809518799999996 6.76732307665512 10.0
20.933874299999996 7.996501164674537 10.0
1.7547046499999996 9.221185724001847 10.0
20.918090999999997 10.451207424687597 10.0
18.8023407 11.683209032651481 10.0
16.687591499999996 12.912387120670898 10.0
11.175875699999997 0.6347617166861194 10.0
11.089184699999999 3.099501802453052 10.0
11.028671399999999 5.543241097803764 10.0
8.894858699999999 6.760952940195043 10.0
6.761684999999999 7.965270279435133 10.0
4.6405245 9.157002295020314 10.0
6.689435399999999 10.342088708784985 10.0
9.005235299999999 11.718348082692067 10.0
11.143521 12.90527667105465 10.0
15.280236599999997 0.6188484271454464 10.0
15.278873399999998 3.079960978447141 10.0
15.273463199999998 15.371655775716174 10.0
15.270310799999997 5.5376112744998585 10.0
17.393942099999997 6.766582763498949 10.0
19.519362599999997 7.995605902253121 10.0
0.33840801 9.217845706506562 10.0
19.512716999999995 10.450604844211645 10.0
17.394346799999997 11.682950783876073 10.0
15.280982099999997 12.908668338305016 10.0
12.511343099999998 0.6381585489119929 10.0
12.477965999999999 3.1000527331739236 10.0
12.443417399999998 5.544291309490426 10.0
10.313928599999999 6.764430690370544 10.0
8.184333299999999 7.984535638080609 10.0
6.051564299999999 9.143470059188909 10.0
8.180946599999999 10.468544525810023 10.0
10.397594999999997 11.673361146015903 10.0
12.496624799999998 12.893138978610448 10.0
14.581021499999999 1.854622188888797 10.0
14.571287399999997 16.605069143652294 10.0
14.567815499999996 4.313408779553312 10.0
14.571585599999999 14.137347145358643 10.0
14.5598067 6.765842450342777 10.0
16.6851207 7.994607340321542 10.0
18.809625299999997 9.223647695660741 10.0
16.6882731 10.45230928612934 10.0
14.578635899999998 11.674531873797754 10.0
13.194008099999998 1.8600109800023215 10.0
13.173773099999998 16.618084881932884 10.0
13.162356299999999 4.317058695579085 10.0
13.144954199999997 6.7662728649684585 10.0
11.0221536 7.991043507220904 10.0
8.897350799999998 9.22669503121056 10.0
11.057788499999997 10.444269140921621 10.0
13.182740399999998 11.671708353853289 10.0
13.169385299999998 14.12572595046526 10.0
15.269309699999997 7.993488262294771 10.0
17.394900599999996 9.223992027361284 10.0
15.278106599999997 10.449967830565637 10.0
12.4640997 15.372068973756829 10.0
12.439114799999997 7.990044945289324 10.0
10.322768099999998 9.221512839117365 10.0
12.463588499999998 10.438897566393123 10.0
14.565877199999997 9.218344987472351 10.0
13.155156899999998 9.216812711404927 10.0
