N=95, ave_E=-7.269236421052631 
1
17.04 0 0
0 14.757072880486835 0
0 0 10
C
95
C
2.48415936 0.6153551820434205 10.0
3.90350616 0.6157595258403458 10.0
1.77316536 1.8443684827490054 10.0
1.7740344 14.143016320856898 10.0
4.61363112 1.8448554661540615 10.0
4.61395488 14.14307534914842 10.0
0.353351664 1.8441471266557983 10.0
2.48524992 3.0748722478155197 10.0
2.48531808 12.914239133317398 10.0
0.35497898399999994 14.142750693545048 10.0
6.034392239999999 1.8434535442304154 10.0
3.90452856 3.0746508917223125 10.0
3.90519312 12.9148441733055 10.0
6.03294384 14.142426037941677 10.0
16.68432408 0.613460373885566 10.0
16.68365952 3.0746951629409542 10.0
1.7743070399999998 4.305066114351544 10.0
1.77611328 11.685727573089752 10.0
16.68464784 12.914165347952999 10.0
6.74398896 0.6134943151531912 10.0
6.7456929599999995 3.0725849015190443 10.0
4.61548848 4.303590407063496 10.0
4.6150284 11.685904657964317 10.0
6.74218272 12.911125390939617 10.0
15.264585359999998 0.6140211426550245 10.0
15.264840959999999 3.0744442927019855 10.0
0.35400429599999994 4.306069595307417 10.0
2.4854543999999996 5.536042105750234 10.0
2.48606784 10.456315831416394 10.0
0.35535897599999994 11.686170285276166 10.0
15.26414232 12.91392923478691 10.0
8.16507384 0.6102861275089734 10.0
8.165994 3.071212493741159 10.0
6.03618144 4.301701501734793 10.0
3.90682896 5.534064657984248 10.0
3.9055679999999997 10.456389616780795 10.0
6.03401736 11.684015752635615 10.0
8.1611376 12.905458674953511 10.0
14.55449448 1.8440290700727544 10.0
14.55510792 14.141717698443413 10.0
14.55469896 4.3043135036346385 10.0
16.68434112 5.537104614997629 10.0
1.7757383999999998 6.7675345946997405 10.0
1.77601104 9.228497853614126 10.0
16.685176079999998 10.456079718250306 10.0
14.55185328 11.686185042349047 10.0
8.87577816 1.8404283442899156 10.0
8.875113599999999 14.135519727833609 10.0
8.877618479999999 4.3014358744229435 10.0
6.74765256 5.531718283396251 10.0
4.61731176 6.763196015272877 10.0
4.61663016 9.225782552204118 10.0
6.7449432 10.454353140723288 10.0
8.8715352 11.669465278775455 10.0
13.135948560000001 1.8424353062016618 10.0
13.13376744 14.13920899605373 10.0
13.136187119999999 4.3043282607075195 10.0
15.265318079999998 5.536160162333277 10.0
0.355174944 6.767401781043817 10.0
2.48623824 7.997507105142557 10.0
0.355185168 9.227184474127764 10.0
15.26202936 10.45473682461818 10.0
13.1247192 11.68810346182351 10.0
10.29648816 1.8404873725814375 10.0
10.29938496 14.13674456488269 10.0
10.298430719999999 4.3012440324754975 10.0
8.16810696 5.5325741936233195 10.0
6.036266639999999 6.763535427949128 10.0
3.90638592 7.994983645679993 10.0
6.035516879999999 9.224779071248244 10.0
8.16648816 10.453689072443668 10.0
10.285105439999999 11.690995848108084 10.0
12.42534648 0.6116319725556737 10.0
12.4265052 3.0719208332394223 10.0
12.42217704 12.90668351200259 10.0
12.42739128 5.533828544818161 10.0
14.5548864 6.766280243504899 10.0
16.68529536 7.996695466134129 10.0
14.55197256 9.22188668496367 10.0
12.436780319999999 10.453393930986056 10.0
11.00671536 0.6107804894504696 10.0
11.00746512 3.070740267408983 10.0
11.0135484 12.904588007653562 10.0
11.00910096 5.5325594365504385 10.0
8.87874312 6.765129191820221 10.0
6.74560776 7.994393362764774 10.0
8.87284728 9.234533496422246 10.0
13.135386239999999 6.765557146933755 10.0
15.2641764 7.995514900303691 10.0
13.125366719999999 9.21763664797409 10.0
10.30274184 6.763860083552499 10.0
8.164528559999999 7.997876031964569 10.0
10.2879 9.210789366157542 10.0
12.4231824 7.9971234212476645 10.0
11.01554208 7.998185930495059 10.0
