N=189, ave_E=-6.676062433862433 
1
25.56 0 0
0 19.676097173982445 0
0 0 10
C
189
C
2.494704564 0.623423365689612 10.0
3.9044178 0.5997097333755284 10.0
1.7707507919999999 1.8391523493881827 10.0
4.60864692 1.8367243189969134 10.0
4.608467999999999 19.05572950618395 10.0
0.365791716 1.8424461280551072 10.0
2.483744436 3.072402897620185 10.0
6.00918156 1.844360612310136 10.0
3.8997914399999996 3.0703959357084383 10.0
3.9064626 17.840769857884883 10.0
6.017974199999999 19.054371855478948 10.0
25.22511288 0.6234273009090467 10.0
25.21626912 3.0749214380584546 10.0
1.7784008999999998 4.30424463729453 10.0
6.7150209599999995 0.614110668897166 10.0
6.70993452 3.0879666904848047 10.0
4.60665324 4.3061532187204055 10.0
4.61590596 16.604323911471827 10.0
2.49486048 17.820247688532422 10.0
6.727698719999999 17.819578701228505 10.0
23.806941839999997 0.6224808806349783 10.0
0.35139887999999997 19.062320998737235 10.0
23.802392159999997 3.0770071043588967 10.0
0.36516038399999995 4.304972652889967 10.0
2.486300436 5.535240304790394 10.0
8.10487152 0.6222723140049341 10.0
8.10259668 3.1025466784907256 10.0
6.010894079999999 4.3121937805528185 10.0
3.9014272799999996 5.534610669680825 10.0
3.90439224 15.375394234179232 10.0
6.02901612 16.596787966254194 10.0
1.7690817239999999 16.60696050849314 10.0
8.121204359999998 17.817768500288498 10.0
23.096424959999997 1.8503913360939614 10.0
23.102303759999998 19.068676378124433 10.0
25.22386044 17.825816024032658 10.0
23.09823972 4.305169413861707 10.0
25.22033316 5.535712531122568 10.0
1.775579076 6.767101720561912 10.0
8.79345792 1.8857453474961732 10.0
8.8070814 19.045793077111092 10.0
8.81492832 4.347768164243379 10.0
6.72261228 5.5505286322945775 10.0
4.609899359999999 6.765980183022996 10.0
4.61526696 14.14308026817271 10.0
2.482277292 15.374508809806402 10.0
6.7382038799999995 15.364375619761802 10.0
0.363251052 16.604205854888782 10.0
8.83496736 16.581578343138705 10.0
21.69228636 1.8519221364540974 10.0
23.808501 17.829062580066367 10.0
21.700465559999998 19.07568106871837 10.0
21.69678492 4.303241156338657 10.0
23.80561272 5.537857225714533 10.0
0.37137913199999995 6.768695484433004 10.0
2.475726264 7.987826465332957 10.0
10.15215084 1.9172034916579364 10.0
10.17960228 19.03798166653302 10.0
10.203730919999998 4.362505561026691 10.0
8.12726208 5.560051863326786 10.0
6.023162879999999 6.771273053162797 10.0
3.89902464 7.99095496478362 10.0
3.9054657599999993 12.913934153811201 10.0
6.03333576 14.140030473110743 10.0
1.775801448 14.1433163813388 10.0
8.14382496 15.359633680342872 10.0
25.21297188 15.369471728929865 10.0
10.22699052 16.572842155993456 10.0
20.99278584 0.6341586443077368 10.0
20.99235132 3.0727570673693165 10.0
23.10148584 16.60017225496812 10.0
21.005489159999996 17.853362560076235 10.0
21.00019824 5.529396503929721 10.0
23.09762628 6.771607546814755 10.0
25.207118639999997 7.98324193469142 10.0
1.78705296 9.224213383454492 10.0
10.820928239999999 0.6182760986688981 10.0
10.861031879999999 3.178929287720126 10.0
10.91483568 17.797954670434297 10.0
10.93691952 5.575163105956404 10.0
8.844756839999999 6.790299839130038 10.0
6.735673439999999 8.002249044561486 10.0
4.60966932 9.225216864410365 10.0
4.61388672 11.684492897992083 10.0
2.485413504 12.913265166507287 10.0
6.7426002 12.90854290318553 10.0
0.361104012 14.141033954066616 10.0
8.85492972 14.125765302659607 10.0
23.800628519999997 15.36827148700225 10.0
10.945098719999999 15.32661718928493 10.0
19.59958692 0.6421746862964173 10.0
19.60446888 3.0675625777153854 10.0
21.70624212 16.606744071424227 10.0
19.62297432 17.86693906712628 10.0
19.61786232 5.522352461141435 10.0
21.69816516 6.769443176125616 10.0
23.79937608 8.006636814231285 10.0
2.475713484 10.461092204005377 10.0
12.29901192 0.2111422311642882 10.0
12.24050508 1.6003730721333187 10.0
12.306347639999998 3.19036110017821 10.0
12.32050788 17.731193672722977 10.0
12.3521256 5.579924721472507 10.0
10.24950888 6.796379753156799 10.0
8.14988268 8.007128716660635 10.0
6.02980848 9.226141640977543 10.0
3.9003537600000002 10.458357226498194 10.0
6.033438 11.681895653165116 10.0
1.7745106679999998 11.680931524403592 10.0
8.155071359999999 12.905256994957476 10.0
25.21511892 12.909113510003577 10.0
10.25597556 14.115573084323483 10.0
23.08852692 14.137787398032911 10.0
12.34852164 15.319710879176862 10.0
18.89758152 1.8680053782841106 10.0
18.91335204 19.101555136502157 10.0
18.913582079999998 4.247734886210852 10.0
20.996543159999998 15.375650023442493 10.0
18.94502088 16.653337069532217 10.0
18.942694919999997 6.761002130437978 10.0
20.9908944 8.011516486330432 10.0
23.093383319999997 9.228856942387551 10.0
13.160792879999999 18.887912073387056 10.0
13.561215840000001 2.1222048128942244 10.0
13.08464964 4.338795863932043 10.0
12.948056999999999 16.555389457800135 10.0
13.014921959999999 6.804446952998131 10.0
10.95913116 8.024935584603089 10.0
8.861549759999999 9.233382444737568 10.0
6.74137332 10.45369399146796 10.0
0.36888192 11.677291446426405 10.0
8.863850159999998 11.676897924482926 10.0
23.79487752 12.907224604674875 10.0
10.96687584 12.886564702642193 10.0
21.678075 14.148373138312513 10.0
13.08462408 14.073977814897685 10.0
17.49909168 1.8506018703337233 10.0
17.532703079999997 19.100807444809547 10.0
17.536946039999997 4.155060468521395 10.0
19.61637984 15.429326416533119 10.0
17.6222142 16.64831966475285 10.0
17.59379148 6.739830649878773 10.0
19.600455959999998 8.015491057959578 10.0
21.683647079999997 9.236353535410839 10.0
23.793011639999996 10.441908009260743 10.0
14.64240384 19.08195774371687 10.0
14.872546080000001 1.8997547286840486 10.0
14.55751908 4.243484849221272 10.0
14.252025959999997 16.786072021067902 10.0
14.369193 6.801633271102252 10.0
12.35181888 8.025683276295698 10.0
10.267043039999999 9.236137098341926 10.0
8.15790852 10.454146541702961 10.0
25.204255919999998 10.462646615682122 10.0
10.269547919999999 11.673002057242476 10.0
23.08295484 11.680872496112071 10.0
12.37034988 12.871217346846487 10.0
20.96270172 12.941165872299994 10.0
14.506526880000001 13.92963396602935 10.0
16.80789816 0.63153188533501 10.0
16.878213719999998 17.90072292597401 10.0
16.7659542 5.294601636352588 10.0
16.99809012 15.267549545568633 10.0
16.79555268 8.16981068809512 10.0
16.01331444 6.7697579936803995 10.0
18.862359839999996 9.298589030772145 10.0
20.96617788 10.481830810426755 10.0
15.42208608 0.645562910229777 10.0
15.4323612 17.91614898615841 10.0
15.51346308 3.1102990607772747 10.0
15.17578992 5.424621286478264 10.0
15.557528519999998 16.273726126754575 10.0
15.185809439999998 8.1586346649003 10.0
13.077288359999997 9.263919747551588 10.0
10.97357256 10.45300532806687 10.0
21.67025364 11.696967543600389 10.0
13.07370996 11.639729776921271 10.0
19.55163636 12.946517770731315 10.0
15.138804599999999 12.751724408708892 10.0
15.438648959999998 14.873496347465286 10.0
17.455537439999997 9.34530008546318 10.0
19.55291436 10.50408447633053 10.0
14.49300564 9.306341413058695 10.0
12.3739794 10.452139579791213 10.0
14.483292839999999 11.61985691877555 10.0
18.821105999999997 11.757943768742559 10.0
16.6835232 10.539166957591739 10.0
15.206794199999997 10.484546111836764 10.0
17.3985642 11.758120853617125 10.0
