N=241, ave_E=-6.774353941908714 
1
29.98069304398598 0 0
0 22.25489297070444 0
0 0 20
C
241
C
2.482989005625701 0.5975260723490377 9.968450900478864
3.9343063867761927 0.537702694554487 10.126558338040812
1.737618009374035 1.7940537164510706 10.503518802491243
1.7422620187265485 21.745522980390955 9.323534221739934
4.656301436661463 1.5950371105712489 10.769484347020281
4.650335278745709 21.654433703461862 9.597945031915167
0.23467927132654817 1.8869189338392263 10.471547439687793
2.5345348111762265 2.8791600134059743 11.099030677199945
2.4131190004866916 20.536103076790994 8.946272140659278
6.079694800310785 1.7554258987218188 10.47203002629615
3.8741051551438686 2.5721982746610483 11.544337470058498
3.9110713496671035 20.482735843447244 9.133214128070364
6.085660958226538 21.649137038934835 9.58533745677192
29.381139144492348 0.881932477068155 9.872657458720617
29.607613299746617 3.043045045242242 11.125271324029185
1.900467137850358 4.220863000823804 11.267393080189407
1.6858683351108108 19.28933946278619 8.874608029318725
6.82828272492607 0.5759009928494041 9.993485080787224
6.768141454679835 3.050211120778809 10.450615245550445
4.584407734741984 3.5912720786825756 12.205300153525194
4.6161572886755655 19.204503810781866 8.89547990013003
6.789847476443681 20.393382448169866 9.377644245201612
27.927225435324246 0.8560923208398701 9.973759353170756
28.152770189094156 2.995731142786525 11.373200194071
0.4102947785148613 4.228029076360371 11.34605469735109
2.6304130675308937 5.531364628296705 10.932960560600161
2.3775918792295685 18.00865939189403 8.80589976095434
0.22559482152728996 19.289183678535395 9.275637500860807
8.294398576163074 0.620441935640972 9.997104480349876
8.241512633633484 3.105559039596951 10.395238432241836
5.9898126825649145 4.319674725613732 10.331959263221435
5.03318872891741 4.649225180723923 11.404869940244225
3.8782724714769823 17.99403792721228 8.782253017144999
6.029177332531669 19.169496864138946 8.952666413219966
8.265167400445188 20.401104896030702 9.350076485199395
27.257846501731173 1.9842418062894136 10.6630136765522
27.25979524677903 21.86561038286088 9.646143369424511
27.53753638713852 4.173704882618882 11.971788558407958
29.71329524272667 5.4695405356240885 11.470079455698045
4.089666338130128 5.726762588579491 11.124547444116658
1.7884592686380263 6.758477171808377 10.552983929847517
1.6207112949183162 16.75728901504429 8.97239214083643
29.495875256771683 18.052078688079877 9.586966186575115
29.437442886028954 20.629595882160924 9.381142998112178
9.031204088412073 1.8794234858866927 10.235683234854832
9.021820131489305 21.620628521039365 9.695246556824518
8.946358727097593 4.427254878234117 10.379735337448473
6.314263742686931 5.312599030394681 9.216219024707236
4.583358410485445 16.70165178261753 8.83171814450127
6.76013660963709 17.919906878726863 8.786355003316007
8.999514495864581 19.170342550071833 9.093461056207214
25.74427121340554 2.1665271836338595 10.855324439981231
28.024392861479807 20.63271156717682 9.653080551919597
25.81820360245201 21.75380180057606 9.408650434788349
26.168198213047503 4.132511075730108 12.401592256473137
28.239324449912143 5.428791826594728 11.780804908151907
0.2921057898176511 6.644643394263224 10.843139128120296
4.733921450952343 6.914061128566573 10.734255524610443
2.4790405483518083 8.025470483523552 10.208417091482836
2.3693262021573416 15.485866979627948 8.967807568057069
0.19748822160548357 16.76033793538128 9.362744383668684
28.114544805463073 18.080542696189408 9.997768036936364
10.50961202379711 1.8655653640338352 10.22392018627621
10.53068845100703 21.606363134645143 9.596376625438012
10.391248247659453 4.347893929900585 10.086805266177656
8.31559492614517 5.694693287808705 10.52843233614751
3.8365693274527977 15.468953260970212 8.869782163235186
6.015805943434051 16.68518316181921 8.742982531890199
8.250986532635382 17.929854815884767 8.725488767337374
10.467998821852058 19.13711599486657 9.023305028017766
24.712965353385467 1.6130235150701724 9.934549191242002
25.30298539249111 3.028712894169108 11.926244447244557
27.375400799156644 19.33832248221471 9.948785496188442
25.09312054118321 20.684365173761826 10.045121847881088
25.119953261457578 0.6453340334287049 8.976252833703263
25.313418673670416 5.451425052745935 12.474824774290845
27.462824500072905 6.6520765285154395 11.635546339037386
29.292186428230842 7.443237973623982 10.183322587848437
6.194790680906647 6.974394143410152 10.6928737229441
3.9614988753670874 8.074431248059103 10.20021311914082
1.7558462707447784 9.290127031476802 9.83224083027098
1.6273700068433854 14.257530417002886 9.129293111877491
29.47938587559749 15.525347159757978 9.615499119794038
27.37381182242531 16.836338394876233 10.153402218130491
11.274419503349192 0.5934089171494573 9.86360895981398
11.15557603612283 3.1431698087174413 10.290818754859263
11.194520956386969 20.386661470492715 9.280584013596435
11.064884439664773 5.527937374779217 9.58419131357708
7.0511292163220185 5.955854456819923 11.180105227403399
9.016003877038772 6.888579276115116 10.107194550380608
4.564080824858162 14.18718270032249 8.671861330484045
6.7566888299370325 15.414651322121692 8.632409875251113
8.964826834012689 16.67768326288808 8.513150659661658
11.124935767831877 17.914098351661508 8.719275464754816
23.399031500039737 1.452427756414975 10.51419603120107
23.88420905557056 3.444990667186135 11.971004355169384
25.86950056825027 19.37686795683997 10.254986699188986
23.716646962147724 20.85635098663943 10.639608226047041
23.837738981352384 4.919978208605513 12.18243761295443
26.065484358678805 6.707023859260109 12.016005556398383
28.066275889662254 7.738360109308494 10.89477589521416
29.67066269721812 8.253583136473273 9.129293111877491
6.839525484817566 8.115669564733818 10.026723233437593
4.638552866379422 9.28465232780601 9.771072977662122
0.3543478072254791 9.378456701677528 9.542568218606554
2.4652794102446185 10.50980644073626 9.546428911473384
2.357828606374973 12.964765939227638 9.079948631173306
0.2187949005379835 14.26113570966414 9.453289696061084
28.062828109962197 15.531667549361659 9.968511223804907
25.982287935481747 16.826679771326948 10.533439172209185
12.755495720415142 0.6500654236742767 9.855224017493832
12.63068609527303 3.134779714067486 10.211252287806918
12.51538034982586 5.474481121863585 9.256213389874564
10.394306278349939 6.807771759738488 9.592455609245139
8.278029117761058 8.113510840115659 9.903181061698998
3.8295238645874616 12.92882428707995 8.89988350293126
5.998507083547671 14.167754178759065 8.597723962775678
8.222474893550551 15.428293571512736 8.52455176828402
10.396674753100415 16.665999444078462 8.394313707354513
12.603253761137783 17.888638754103024 8.744128675085044
22.838722327740683 2.6603499057180087 11.256836498131669
23.02823028847172 22.23978189837733 10.912872893027426
25.279210702907232 18.103287196805468 10.627302267534017
22.973605465745575 19.607717961625088 11.127322317114693
22.610659195755083 5.624568120058016 11.74201700950546
25.381624750345487 7.994602946973186 11.9284764103082
27.471189113432178 9.136256701477352 10.945990399025714
6.085690938919582 9.269741549515638 9.612422630165781
3.891284092258072 10.46591979179803 9.401290989010953
29.561173206221483 10.543989956339262 9.951922309142745
1.6620516725566683 11.742482707490607 9.403221335444368
29.533560987927974 13.024520326853978 9.824398797885227
27.425888286242714 14.269859627708657 10.383475383663207
25.350324906807565 15.611162027053012 10.958115387560607
13.33253411943274 1.9002540657072722 10.247868546715768
13.651288847876401 21.91951173363592 9.247104567641884
13.357388113966206 4.331291779744439 9.718290067373417
13.054613094914991 6.6557263309626356 8.668060960943258
11.119569223777004 8.02255509254439 9.321543551980472
8.986113126073917 9.306862710990773 9.422162859822258
4.568248141191276 11.67654145961841 8.988498468890242
6.759686899241431 12.891970184320462 8.642544194026545
8.954213668675116 14.178814860565504 8.54222650281498
11.141635013857377 15.427982003011145 8.25231259784638
13.311397730836731 16.57898281256301 8.697197127422626
13.369050603560316 19.120424825138542 9.053647661018019
21.560615402582517 3.3660303069260755 10.86702716523381
21.576235343658432 19.366875509896122 10.978263378459385
21.450706181883266 4.901172824045268 11.077012663193802
24.01348580397623 8.121678385835908 12.360693041415153
26.058558818585645 9.227524017550211 11.405292203526532
28.382092510187604 10.432470687663061 10.926385318061335
6.789877457136725 10.448026857849584 9.151130155905506
0.24342793736371374 11.776488183949843 9.685655147983482
28.16883984056573 13.023363072419501 10.270912057264667
26.0710008061989 14.291825207070742 10.897188828255931
23.900518552586494 15.598276444022975 11.284162964829704
15.035527426410278 21.63166694795283 9.671901429645395
14.855883113690712 4.231612114128654 9.451118056323491
12.552826235437797 7.930442090538644 9.063601009815315
14.290057493871565 6.662870151606231 7.996059108810464
10.445423359989936 9.278598996917978 9.23081726960994
8.247598714321411 10.441127841028665 9.014980409023664
6.0431783161832096 11.631497556245705 8.815973756403729
8.215069662368686 12.882600874379795 8.602851445489438
10.431422376338395 14.16125575001162 8.446674354360912
12.624659975971188 15.420904947046463 8.310283314174892
14.716173084105737 16.533427046651976 9.16035962479027
14.716832659352706 19.092450424674368 9.571040828499434
20.091771308278513 2.938847636353404 11.13299270976285
20.91965816599514 18.0354987928167 10.862201299150271
19.962734405417198 5.372486947378847 11.259068461195305
23.173156958646345 9.357581612071007 12.143589390981944
25.329428363755905 10.505466736606973 11.345270494112519
27.507945443104102 11.740880355196717 10.688952706751227
28.850750703851194 10.513523007862368 12.32630874556994
25.407348184977227 13.06059550835949 11.306663565444207
23.24463093086321 14.321401959828808 11.516588740078149
23.098205226036384 16.813304580651558 11.080028829496012
16.072049927020004 0.3819674045240915 9.72178882028398
15.377757037507376 20.2629242655756 10.03800369540787
15.781177243107253 5.432174570326276 9.474342536850525
15.366124528606312 2.883054619675848 9.10534475143793
13.376875564444797 9.157220810655756 9.046770801848975
15.444584002302422 6.657373193042468 8.791422162703721
11.187325590056412 10.510251538595673 9.06348036316323
8.946898379572385 11.659739015425528 8.745998698192412
11.091717159939142 12.881910972697703 8.472372091255753
13.36908058425336 14.278027173428907 7.924515644122
15.509102453733078 15.301685485402398 8.930527752561733
15.350624510302572 17.780324190014603 9.734818658709536
19.55592638150335 1.615126602455904 10.874145317707033
19.232164877321345 4.066013455533643 11.430808970443248
19.479715459785538 17.938600988822255 10.73033450841757
21.671783812389616 16.80876458248553 11.066998991070456
19.279924121340418 6.652477116588913 10.777205732753941
21.697597189100488 9.354132103660548 12.05738735806473
23.91338026990236 10.571163180656491 11.769343476203499
26.057269648784754 11.763980934100308 11.077314279824016
23.966985749065007 13.078666481451702 11.561348648002973
21.801420329111814 14.299525400038608 11.421579501558476
17.536217033209148 0.12563087375999393 10.001387436499016
15.846774999487494 1.8738753410690963 10.099171548016724
17.10164688753657 5.444080938065603 10.167578199750885
15.017329145732578 9.149943460654335 9.187082858227871
12.65844821703176 10.47922821779451 8.940179484728809
15.810318476746007 7.914463077385679 9.43754530796354
10.400632204582221 11.704137526902082 8.720662901253831
14.80644495086118 14.138911837469033 8.175641650444156
16.94247938816605 15.265855107719563 9.46245884161981
16.65103707108546 17.70877470911379 10.30071178033052
18.112505914900645 1.2348438933296948 10.889407119196221
18.62535565011107 19.082324448372695 10.81545072146599
18.828175038553635 16.609561035504758 10.523184206781664
20.98729460950237 15.486645900881923 11.061087305118118
17.85170386611101 6.65143113661929 10.374366561430534
20.002638707858743 7.910969059189277 10.836865502211694
20.900590445219166 8.171573855876225 11.907785509475026
23.179812672502113 11.826339144204221 11.688389572652138
18.34929342856205 21.276033758280974 9.463363691510473
17.02162841780217 2.1671147128082864 10.956486657757413
15.707784506535575 10.402760405547172 8.770429645240327
13.45368610002349 11.667016365426948 8.73115915998553
17.097839339519986 7.91228209787455 10.145982449027052
15.44389444636241 12.867200488444068 7.906418646308726
17.81518738198344 14.0665389255283 9.567843692219089
17.439409375370115 16.503204901997762 10.135486190295353
17.207178927051398 18.864604830440296 10.89308684208492
19.112571892768884 20.368078634862176 10.317662634948949
19.621943867586207 15.363598597646899 10.643710212218046
19.65672147151723 9.008891949006012 9.899682308788432
21.709469543545907 11.955239484290543 11.697076131602504
17.234881087424043 10.414800302644322 8.907906505295141
14.823683849361473 11.626868538507798 8.42091629414002
16.792336077401767 12.880887247621052 7.639065665280672
17.638780984112625 12.889321852056948 8.767835742220427
19.059925795783645 14.090106857184278 10.299083050527326
20.166783002274567 10.345365036575725 9.976172286212527
18.052694432277896 11.605948939115336 9.227559810003552
19.782040768441092 12.838157853117298 10.511119541572814
19.32441546981769 11.556765625650078 9.957351408486723
