N=189, ave_E=-7.256684126984127 
1
25.56 0 0
0 19.676097173982445 0
0 0 10
C
189
C
2.488708188 0.612593641805052 10.0
3.9069226799999996 0.609964915222608 10.0
1.7799396119999997 1.842888840241522 10.0
1.778799636 19.06175039191919 10.0
4.62089016 1.8437919731018078 10.0
4.61708172 19.051400764805674 10.0
0.36020941199999995 1.843052151848066 10.0
2.4903849239999998 3.0738589288110596 10.0
2.489482656 17.832761686335072 10.0
0.358834284 19.062006181182454 10.0
6.0432786 1.8455234696531182 10.0
3.9098109599999997 3.074272126851713 10.0
3.91149792 17.832328812197247 10.0
6.03001296 19.07528754677489 10.0
25.20852444 0.6160448292493685 10.0
25.210850399999998 3.0719109951908354 10.0
1.780374132 4.305267794347577 10.0
1.778577264 16.603772980750957 10.0
25.208984519999998 17.83441447849769 10.0
6.75622368 0.6126979251200741 10.0
6.749884799999999 3.0760232995001977 10.0
4.618359719999999 4.305248118250403 10.0
4.6164938399999995 16.61317815520012 10.0
23.78618712 0.6172096542020683 10.0
23.79224484 3.0680938323390827 10.0
0.361449072 4.304165932905834 10.0
2.489894172 5.536263461843441 10.0
2.487491532 15.374902331749881 10.0
0.35846366399999996 16.604323911471827 10.0
23.789893319999997 17.840140222775318 10.0
8.16138468 0.6144963204017762 10.0
8.16672672 3.076436497540851 10.0
6.03821772 4.305484231416491 10.0
3.90814956 5.535673178928221 10.0
3.90600252 15.378621114115765 10.0
6.029373959999999 16.59074740442178 10.0
23.081037839999997 1.8336233660822938 10.0
23.080040999999998 19.07666487357707 10.0
23.0791464 4.298617273502771 10.0
25.21049256 5.533174314587125 10.0
1.7795919959999997 6.765724393759734 10.0
1.7773606079999997 14.145224962764676 10.0
25.20783432 15.374253020543142 10.0
23.07618144 16.608259130906625 10.0
8.873818559999998 1.8467138735321442 10.0
8.861549759999999 19.07034884638422 10.0
8.87665572 4.306782853829973 10.0
6.7472010000000004 5.5359486442886565 10.0
4.6179763199999995 6.7656653654682115 10.0
4.61930544 14.146071034943157 10.0
6.7551757199999996 15.377381519993806 10.0
21.666803039999998 1.8525537391733822 10.0
21.66672636 19.05834642710809 10.0
21.65476428 4.298853386668859 10.0
23.790378959999998 5.532013424853861 10.0
0.360534024 6.7651537869416885 10.0
2.48936508 7.995539495425159 10.0
2.48753754 12.914445732337727 10.0
0.357492384 14.144536299363585 10.0
23.7871584 15.374666218583794 10.0
21.65358852 16.609360992348368 10.0
10.292219639999999 1.847613071172995 10.0
8.17327008 17.834355450206168 10.0
10.285267319999999 19.06757451668269 10.0
10.295261279999998 4.306310627497798 10.0
8.1669312 5.5365389272038765 10.0
6.03773208 6.765252167427558 10.0
3.9086863199999997 7.994831155926895 10.0
3.9083284799999993 12.914288323560335 10.0
6.0421795199999995 14.144241157905975 10.0
8.1618192 15.376240306357714 10.0
20.939467679999996 3.0612859027168846 10.0
20.939493239999997 17.848522240171434 10.0
20.94958944 5.532170833631253 10.0
23.08078224 6.762418809434505 10.0
25.210748159999998 7.9945360144692845 10.0
1.778613048 9.224193707357317 10.0
1.777181688 11.684158404340126 10.0
25.20742536 12.914465408434898 10.0
23.07728052 14.145126582278804 10.0
20.94662448 15.376712532689888 10.0
10.99926036 0.6193818953300759 10.0
11.003094359999999 3.077459654593898 10.0
8.862112080000001 16.596197683338975 10.0
10.99657656 17.832663305849202 10.0
11.00572704 5.536834068661486 10.0
8.87675796 6.765370224010602 10.0
6.7481722799999995 7.993847351068196 10.0
4.6181808 9.224311763940362 10.0
4.61802744 11.683430388744688 10.0
6.74970588 12.913029053341198 10.0
8.874713159999999 14.143847635962496 10.0
19.5333354 3.0634502734060227 10.0
19.533974399999998 17.84879770553187 10.0
19.53259416 5.532761116546472 10.0
21.66148656 6.76279265528081 10.0
23.791248 7.993847351068196 10.0
0.359376156 9.224685609786668 10.0
2.4878979359999995 10.453871076342526 10.0
0.35740292399999996 11.683961643368384 10.0
23.788615319999998 12.913835773325333 10.0
21.65875164 14.144241157905975 10.0
19.53054936 15.376397715135104 10.0
12.42029412 0.6165859219216531 10.0
12.42287568 3.0769874282617224 10.0
10.2871332 16.59916877401224 10.0
12.41980848 17.83293877120964 10.0
12.425354999999998 5.536302814037788 10.0
10.296488160000001 6.765271843524732 10.0
8.1685926 7.994339253497546 10.0
6.03883116 9.223937918094057 10.0
3.9084051599999996 10.45375301975948 10.0
6.03821772 11.683056542898383 10.0
8.16711012 12.913835773325333 10.0
10.295746920000001 14.143139296464234 10.0
18.8014248 1.8553457773623703 10.0
18.82307412 4.302099942702566 10.0
18.82202616 16.609479048931412 10.0
18.80530992 19.060018895367882 10.0
18.822716279999998 6.763973221111249 10.0
20.95224768 7.993611237902108 10.0
23.081421239999997 9.223268930790141 10.0
25.20947016 10.453851400245352 10.0
23.081318999999997 11.684020671659907 10.0
20.95150644 12.914248971365986 10.0
18.82182168 14.143808283768148 10.0
13.131782279999998 1.8466823917766657 10.0
13.130299799999998 19.063304803595937 10.0
13.134031559999999 4.306546740663886 10.0
11.00311992 15.371065492800957 10.0
13.13352036 16.60227759736573 10.0
13.137405479999998 6.766039211314517 10.0
11.00892204 7.9949492125099395 10.0
8.87857272 9.224764314175363 10.0
6.749118 10.453615287079263 10.0
8.8781382 11.683450064841862 10.0
11.00823192 12.912320713842936 10.0
17.3887236 1.837064715478023 10.0
17.3985642 4.304756215821054 10.0
17.3997144 16.608121398226405 10.0
17.39135628 19.078612807197295 10.0
17.4009924 6.765468604496472 10.0
19.532926439999997 7.993257068152976 10.0
21.6629946 9.223780509316665 10.0
23.79168252 10.453556258787742 10.0
21.66258564 11.683843586785342 10.0
19.532645279999997 12.912478122620326 10.0
17.402909400000002 14.142509661354666 10.0
14.55197256 1.8472234844489501 10.0
14.55161472 19.063698325539413 10.0
14.55427296 4.30627127530345 10.0
12.42571284 15.372246058631395 10.0
14.5560366 16.60294658466965 10.0
14.558158079999998 6.765448928399298 10.0
12.42975132 7.995027916898636 10.0
10.29960648 9.22415435516297 10.0
8.168924879999999 10.454303950480353 10.0
10.299069719999999 11.683272979967295 10.0
12.430058039999999 12.912970025049678 10.0
16.68334428 0.6188014504634436 10.0
16.681095 3.0728357717580126 10.0
16.689759839999997 5.535594474539525 10.0
16.69060332 15.373544681044878 10.0
16.6835232 17.840828886176407 10.0
16.69213692 7.9940244359427615 10.0
18.8231508 9.22252123909753 10.0
20.953321199999998 10.45339885001035 10.0
18.823968719999996 11.681226665861201 10.0
16.693875 12.911061443623801 10.0
15.26223384 0.617874706286549 10.0
15.26266836 3.076672610706939 10.0
15.26420196 17.835083465801603 10.0
15.266809079999998 5.535633826733872 10.0
13.139066879999998 14.142293224285753 10.0
15.26985072 15.372600228380525 10.0
15.27054084 7.994968888607112 10.0
13.141239479999998 9.225118483924495 10.0
11.01007224 10.453516906593393 10.0
13.142389679999999 11.68378455849382 10.0
17.40359952 9.22232447812579 10.0
19.534690079999997 10.451844438333604 10.0
17.4049542 11.68071508733468 10.0
15.27327576 12.911533669955977 10.0
14.561327519999999 14.142312900382926 10.0
14.56257996 9.2240559746771 10.0
12.43194948 10.453851400245352 10.0
14.563985759999998 11.682820429732294 10.0
16.69499964 10.45196249491665 10.0
15.2742726 10.453359497816 10.0
