N=109, ave_E=-6.477031743119266 
1
20.408787710618085 0 0
0 14.13962289427117 0
0 0 20
C
109
C
1.9170831465667413 14.007162906997637 8.108651529882735
3.31514224934967 14.274373500453574 7.9644677564229305
1.3082073740081612 1.1477343997623322 8.340851793441008
1.4579241997744847 12.784948043639732 8.766964285021576
3.5261691142774607 1.518496521484464 7.880935450666513
4.278804387469635 13.422107730501379 8.615421850077382
0.08507627653835965 1.101926263471762 9.060505890797398
2.2336397709885962 2.6399100132291102 8.527577828607452
0.1281249406321206 12.758775601662435 9.240563138993615
2.436788843860089 11.804068263841247 9.21308313751284
4.8734348262062035 1.9896853148131564 7.974240978706888
3.865199895726249 12.134652647109307 9.192214433459448
5.658744568523077 13.927754784823412 8.821981777525977
20.242109141385466 2.3612746044746027 9.687141907827648
19.905343735372558 14.011927959913008 9.549052025909607
0.920742457564535 3.2694484433507456 9.533817297055204
3.5760890090176325 3.8062026680401737 8.882288307972281
20.05661366988366 11.419456381494177 9.661041655375197
1.9812198028261299 10.484275862889975 9.754634631129807
5.9970610424019934 1.0335371494190406 8.225355301861764
4.901843858699384 3.2617989073649447 8.562359002029776
4.8896802212238555 11.302323745438034 9.816090952433047
6.658958845432758 13.172387850565658 9.596768346472459
19.10995205192664 2.5631742797819004 10.52815643013366
18.867638515438472 14.082088768714382 10.642158193598888
1.0204434672884464 4.565260043873333 10.317629724228635
3.4449625479769117 4.988770028802543 9.728879315934435
0.5502882656777086 10.20832698248538 9.759636221357479
2.9431920933236553 9.600789805587231 10.360114496392434
7.362919159935108 1.391220119963971 8.058118221720388
6.00224487448049 3.6691331637031084 9.362613438457394
4.3782360011957655 10.036714379417612 10.455604627060982
6.359174162751489 11.745841296762638 9.8593805781967
8.14720846286645 13.749227906160343 9.605966673327949
18.465871120567243 1.3002627538097036 11.06821319563661
18.380786884601676 3.8078145850501204 10.453764961689888
18.358990299326738 12.899592106066484 11.339506348330715
-0.02159759959476159 5.192507855086096 11.216708684809923
2.1188403401163693 5.532777880036732 10.048578663705555
4.649632060171565 5.307279174118896 10.461008644088583
20.465932316207816 8.86446894336806 9.461380473068218
2.808351232919602 8.09385949563028 10.762023890434492
8.465952909330884 0.5939857623162799 8.560461847115828
7.882608530198287 2.779991257242655 8.003560645558764
7.269630591309872 3.8524250952815455 8.741208969826204
5.682826938021606 4.281732325597407 10.623301623545135
5.221506700610795 9.000718349577257 10.994569091249843
7.491025120394658 10.783993449379842 9.832188024430156
9.187219875811838 13.520491226599718 10.724828156212602
17.31697882518571 3.984079124050105 9.450917376270102
18.931538429760415 4.976058507820593 11.061486919123539
17.551312525679027 12.94066771057434 12.487630008524395
0.3888200599476115 6.712192104893679 11.449138906539588
1.6626018908455023 7.077842752939532 10.431459019065322
5.086584205055899 6.6661959116186145 10.508035090137277
0.9288835229823006 7.730386349510146 9.298915024983128
4.29253950159888 7.761323844402811 11.130934286882486
9.779544121537107 1.323890063666031 8.556092641859472
9.350041184167148 2.705008837034335 8.065764330919016
7.985019826930168 5.04235919957183 8.958921868587083
6.423421026464515 8.527804522255463 10.23363750212944
7.296121197758255 9.412973194682626 9.473740724780285
8.855250534910924 11.266988827825251 9.965621253377606
9.36098029438004 12.114192612781297 11.086609849347589
10.382521754447316 0.2836337654476325 10.851535108646981
16.03585799422708 4.602687625674468 9.6754140410869
18.254599350186925 6.295667093674238 11.104029180830175
16.235823296215717 12.324844714660149 12.592031018334207
19.385307415718298 7.3265587196497615 11.355890868042056
6.490157762278236 7.0683550659774745 10.082325025356635
10.664448747881794 1.3088879237752091 9.720083415878872
10.118615720561314 3.870523812586213 8.33722995224166
9.388450522638532 5.103612045949813 8.541662766604926
7.374246037114501 6.378497004588879 9.119030245415455
8.355623002967283 8.699629219666646 8.658021601326869
9.926671072142952 10.5412302639081 9.303284230239488
10.777390979072356 11.486068144949089 11.25925094651657
11.404757113296755 0.06006285571520085 11.89939700611582
14.755308609324347 4.003690781004459 9.328234691835004
15.722399423779697 5.576342058173981 10.746616692951545
16.727103633985713 6.5001260407254 11.354453629470889
16.197434366532043 10.872153998125622 12.717185753111714
15.010051097528283 13.201614451088114 12.797211196754482
11.563517072897653 2.5836484537328053 9.836442250600822
11.340061256254096 3.7135598588369088 9.003591243379056
10.105635731577362 6.588526963060382 8.607603272250216
8.522077075535083 7.28146746223993 8.74345106199723
9.672826570598284 9.298979554909012 8.582710300197547
11.143667492114819 10.625078227671128 10.085889377013135
11.625049567845167 11.656733393282941 12.416515444022892
12.89931304613303 -0.06293871361566665 11.693584442724234
13.453268770962337 4.39555628989629 10.122452726263706
14.164310934800271 5.665407542784995 10.812672177682536
16.317009453728556 7.619517566396166 12.2621560214792
15.097931337410204 10.023635228240408 12.255889661308903
13.723011718133575 12.980640424496444 12.2594540129654
12.819188145581144 2.942922131853342 10.663026897652284
12.218843246285601 4.773720504203572 9.238608494536823
10.691592435536919 8.242141720922502 8.54712427317537
11.812565509330327 6.140258498443304 8.968235174528267
12.133187564264137 9.546493653673227 10.136825111975416
13.099890611752983 11.6718910690256 12.369374018888504
13.513107336529869 6.977833200208352 10.593464550807639
15.130013951691296 8.488892280050427 12.049272244317454
13.76448237476155 10.518281655950698 11.883874829547182
11.987632090312008 8.473055902408845 9.216704978712187
12.645386909437518 7.202257294786223 9.453734363869593
13.0614812732816 9.3851464168267 11.232748267264189
13.818137077652766 8.102611922201834 11.417232210259606
