N=140, ave_E=-6.346459928571428 
1
21.299999999999997 0 0
0 17.21658502723464 0
0 0 10
C
140
C
2.4594897 0.6369378930335617 10.0
3.8539155 0.6298188351248003 10.0
1.7521656899999998 1.8624901682462434 10.0
1.7649116099999997 16.63833158592491 10.0
4.5453987 1.8449636846885182 10.0
4.559051999999999 16.61527857857344 10.0
0.34661063999999997 1.8565160132417928 10.0
2.4539516999999997 3.0875190592740966 10.0
2.4739736999999997 15.409704428626364 10.0
0.36113297999999994 16.64237748340631 10.0
5.9249358 1.837009622405936 10.0
3.8490803999999996 3.0796338633316234 10.0
3.8615834999999996 15.402163564384434 10.0
5.9501763 16.604173881230874 10.0
20.9486352 0.6392208122081732 10.0
20.9376018 3.0642250197322483 10.0
1.7580977399999997 4.3183327228711015 10.0
1.7813914199999996 14.193989710098244 10.0
20.970105599999997 15.433549398889085 10.0
6.6422772 0.583848831443581 10.0
6.594075299999999 3.0626238773247154 10.0
4.555239299999999 4.306418846032256 10.0
4.556389499999999 14.176308277275274 10.0
6.6535874999999995 15.391592581177713 10.0
19.531439699999996 0.6363714673861658 10.0
19.5485223 3.0455105918076444 10.0
0.34612499999999996 4.292645578010467 10.0
2.4807897 5.53087958975421 10.0
2.4830688 12.948903497513662 10.0
0.39811403999999995 14.211171861955425 10.0
19.5408117 15.437216531499885 10.0
8.033955299999999 0.5322731076774943 10.0
7.946135399999999 3.049315457098663 10.0
5.9390789999999996 4.298774682280163 10.0
3.8718287999999994 5.52564574790593 10.0
3.8645441999999997 12.942085729842878 10.0
5.942721299999999 14.17060958763126 10.0
8.073253799999998 15.411804851999687 10.0
18.830520599999996 1.8478044212180122 10.0
18.826707899999995 16.644185224834168 10.0
18.910033499999997 4.245196669675408 10.0
1.8125000699999998 6.734370532912993 10.0
1.7919221399999998 11.709033910192332 10.0
21.016028399999996 13.020541707811986 10.0
18.843811799999997 14.229077110383749 10.0
8.7322332 1.6606997401175343 10.0
8.728590899999999 16.58267036653186 10.0
8.7577506 4.406068440169888 10.0
9.586640099999999 3.001935415103713 10.0
6.673396499999999 5.546701631394239 10.0
4.584143399999999 6.751897016470718 10.0
4.559520599999999 11.694744144619728 10.0
6.623959199999999 12.96355481137184 10.0
8.783523599999999 14.272376821727244 10.0
17.412558299999997 1.8565848795819018 10.0
17.400545099999995 16.649195251077096 10.0
17.470643399999997 4.289012878569721 10.0
19.7205837 5.386983372096582 10.0
0.45610328999999994 6.736866937741942 10.0
2.5106097 7.974171253894214 10.0
2.4947412 10.459144270385153 10.0
0.4128046499999999 11.715128581291973 10.0
19.644244499999996 13.052409606697397 10.0
17.349084299999998 14.24637977833612 10.0
10.331650199999999 1.5304183978994443 10.0
10.368158399999999 4.396272203289392 10.0
8.086523699999999 5.57657240641649 10.0
11.176706399999999 2.9751808419713908 10.0
5.9817428999999995 6.748556998975434 10.0
3.8839911 7.977752303579878 10.0
3.8708702999999995 10.454788474373261 10.0
5.945234699999999 11.67456630696781 10.0
8.029865699999998 13.053390952043952 10.0
10.213158299999998 14.28857762823787 10.0
16.7043546 0.6407823564701434 10.0
16.711277099999997 3.0830083139969617 10.0
16.6735974 15.44795968055688 10.0
19.0656513 6.568643685440832 10.0
21.062377199999997 7.90807678397466 10.0
1.8123296699999998 9.208238852061365 10.0
21.044698199999996 10.407924929929129 10.0
19.161203099999998 11.807168444847571 10.0
16.5329961 13.103491214473204 10.0
11.147291099999999 0.4323704297399598 10.0
11.039832599999999 5.559700153089801 10.0
8.835410399999999 6.751569901355199 10.0
12.531535499999999 3.013057329031307 10.0
6.686602499999999 7.94891452365926 10.0
4.571299499999999 9.19844261518087 10.0
6.624555599999999 10.344120265818198 10.0
9.547490699999999 12.300303089782652 10.0
8.364211799999998 11.534698770206555 10.0
11.009117999999999 15.461009852007523 10.0
15.297319199999999 0.634558560982798 10.0
15.299321399999997 3.0641217202220847 10.0
15.243366299999998 15.453658370200895 10.0
17.671608899999995 6.3785553701551345 10.0
19.724183399999998 7.8244041807423 10.0
0.44623499999999994 9.185702342260715 10.0
19.660602899999997 10.278249611503998 10.0
18.074242799999997 10.822465864214886 10.0
17.0788938 11.898984492797814 10.0
15.136994099999997 13.090441043022558 10.0
12.5179674 0.5609490516988562 10.0
12.430509599999999 5.5105812360071 10.0
10.301297699999997 6.756855392958561 10.0
8.1374307 7.94312975109011 10.0
13.216500899999998 1.8124759887421267 10.0
13.1770959 4.243664393607985 10.0
5.950581 9.17427052980263 10.0
7.990460699999999 10.272809170635393 10.0
10.740439799999997 11.741952020764407 10.0
12.4238853 15.441882226042265 10.0
14.607156599999998 1.8350124985427767 10.0
14.577592199999996 16.63657549425213 10.0
14.575568699999998 4.250396078353633 10.0
14.483510099999998 14.262511718506637 10.0
16.748765099999996 7.406282196770879 10.0
19.032380699999997 8.94628851087199 10.0
16.419062399999998 10.494093937990439 10.0
14.394305699999997 11.865980299300604 10.0
13.184337899999997 16.62402460376728 10.0
13.109297999999999 6.697957455580392 10.0
10.9878606 7.963755219952737 10.0
8.823099 9.13716878906894 10.0
11.011993499999997 10.397732711593006 10.0
13.083098999999999 14.25309424649674 10.0
15.200212499999997 5.459620144326486 10.0
15.141850499999999 7.8121459722029085 10.0
17.676230999999998 8.777893092720609 10.0
16.211216999999998 8.983493551115844 10.0
15.025658999999997 10.690380223885942 10.0
13.031382599999997 11.783839972135668 10.0
14.476544999999998 6.646617599029177 10.0
12.3969834 7.965786776985951 10.0
10.262808599999998 9.18193191013975 10.0
12.3739581 10.43338825918441 10.0
12.3746184 13.039221702566536 10.0
14.441825999999997 9.311538362224773 10.0
13.072278599999999 9.22993174919568 10.0
