N=204, ave_E=-6.260075 
1
27.499143628329414 0 0
0 18.14472911577164 0
0 0 20
C
204
C
1.549650991144159 0.7189994069957438 7.1644343809564575
1.4261523371093314 1.921399800256406 8.004901165089915
0.24837584013974293 18.12335462487326 7.064120603495368
2.490690935506131 17.94566329264251 7.707500969914317
27.517293063124114 2.2180661212992727 8.164805642123866
2.4506054338391157 2.2286263536446516 8.959569624170804
26.78512836401984 0.9937777413062547 7.721665518745006
0.2564237395140098 16.712910396516985 7.933635778785511
3.813911228100263 0.1794891119915423 8.178472218534726
1.8289157943472956 16.82604278255382 8.24027612886238
26.99714676139426 3.064681037112061 9.224048309368822
2.720589276067691 3.5864871570234222 9.26620997424767
3.788392022813173 1.5316183583372232 8.766964958234755
26.03797663163813 0.28508454044826925 8.703335149034395
0.3959739186761294 15.083078248421913 7.578581443447501
26.758756685280275 17.189100667431294 9.028621799720408
4.68802650661397 17.156567168126717 8.549682992382738
2.6368268845757994 15.629488621014259 8.163477715670986
25.749070628678904 2.527832936763726 9.837495000329167
27.739211152204728 4.275714692486008 9.796163289483367
4.096382431450463 3.9554783683217543 8.92769938930175
1.7285851688193357 4.563889280302693 9.535889704719459
4.852251392362353 2.6344513650479997 8.631848441654512
25.32814123716006 1.1520197383978108 9.682791568568987
1.7996979542421956 14.676255276917196 7.447836018107978
26.762524067957354 14.11919394833389 7.40987945366324
26.67568177237909 16.539610088732246 10.273110207141723
4.145248409678005 15.78941626344067 8.142507543769302
5.452420202050643 17.175582844240044 9.781334777426238
27.451240120128862 5.69579377200276 9.22083915377437
27.458252401754088 4.578586510886468 11.283772898318922
4.28950891715222 5.366775398946472 8.395422202773517
2.0424961430798043 5.952051781304802 9.292491851960861
6.252810276496799 2.4173859706360243 8.523677766013897
24.11897639267879 0.5978815256750566 10.352951785120958
2.360512739483983 13.963748053999076 6.281197298986584
26.889102626078554 12.718729320991288 6.794828184905672
25.685107620599407 13.838876028224334 8.45860936982292
25.884861399915593 15.35514031678379 10.476614936045134
4.983587302331254 14.650544195760148 7.939058145134759
6.919032029180336 17.541471306859577 9.89503847995384
0.9129935677754393 6.992488693532264 9.511544386416713
26.546215804176914 5.58846769928297 11.77549299776554
5.721581819884731 5.811085380804373 8.292231251331195
3.13396740274619 6.324690083155405 8.479966853606694
7.21657276323886 2.56884002456537 9.617114539420442
22.75026151686595 0.8777204249359563 9.97720392922561
3.566776424312466 13.177355494121532 6.313012203586766
26.13969596391932 11.73243628044529 7.5932992949668865
0.514811467865955 11.884035492207563 6.348644896738968
25.138534641842732 14.750884547770365 9.44808056802296
25.275975361697125 12.437213848760091 8.497783200182795
4.409267687653595 13.359510429714764 7.5068734149921355
6.336710163706832 14.398767934549701 8.692490416335897
7.277208374939326 0.3514452582433809 10.918039821089028
7.909908671539929 16.29222485196782 9.683400201526553
27.46809709517303 7.6635896446081935 10.514294849145525
1.904970175880166 8.211143135134835 9.056674246037439
26.41757481028359 6.955691182885479 11.250685397534735
6.642555639141111 5.539313628108345 9.322646848494948
6.187609806954029 6.63354966216407 7.218492053642329
3.189790664311699 7.822192721809153 8.112739859117308
7.091671652878987 1.7930367285997915 10.880747219870727
8.245673215241831 3.6409939232872004 9.57152239787166
21.670535141443224 0.12106689463187195 10.47379309233277
22.435258826603437 2.1298101588801592 9.447914577216352
3.731358798928018 11.910544941445703 5.579000856758956
26.6807416148067 10.332570429163507 7.8788588126043315
0.49521832803077026 10.482609194221823 6.898683099574431
23.942734381164826 12.025745826601739 8.804202229184181
5.055140074052168 12.29024154292234 8.186882419402945
7.763668225724474 14.398205447947111 7.986254864480767
6.822125047034103 15.193434490904034 9.860623052716775
6.248272917798125 12.898380283966542 8.81560026457138
8.21374670948934 18.03010886194731 11.926544631780306
8.520857145530524 15.566617134628109 8.430003620817192
9.291823136294367 16.36277155876994 10.543509231108821
26.80539523287392 8.989425001097628 10.157414614934805
1.366193204342122 9.536107544626711 8.875412285219717
25.132649825106267 7.676762717946244 11.150648271418
7.8863144063068225 4.906062581967914 9.080355601113748
7.726929369837026 6.817138031357447 7.028819891956385
5.546357276685017 7.934653752868707 7.1726785910180695
2.709529120500377 8.816251706416702 6.9735449533553755
4.570000182161181 8.240954925072048 8.183451942733015
7.881199565591954 2.4806929305209513 11.94579956534702
9.396292382938391 3.612942172074217 10.4381050689117
21.44905703866066 16.98216003186592 9.928845274233336
20.394107391647058 0.7394702903841573 10.99002450088874
21.33015074161176 2.9486092049584705 9.982349644230506
4.322480390362587 10.7361454941565 6.212698426125677
27.485751545382417 9.857160381601174 9.184597827664597
25.510460559415886 9.317826453363978 7.82967020357901
1.7215261386499434 9.86138810348515 7.536253787762043
23.164866105350274 12.585928048592955 9.818959360257757
5.202122996745588 10.980718297907986 7.421056167974957
8.708456303362986 12.98627335180334 7.983322360230662
7.493791630156048 12.216065890297067 8.67749591347216
9.435451163465132 17.46504570782395 11.54471044630927
9.913358780581868 15.19895048855523 8.57281104477035
10.522519810236622 15.800901876970954 9.814920250630255
25.24501132597162 8.998116326344082 10.403136338985938
23.838402630238946 7.092066966919619 11.544212473889441
8.04619442736193 8.260914127099396 7.122217385808742
6.663949972883952 8.949415873397351 7.008292362205662
3.715519292198101 9.389806593766245 6.049916775110493
9.192716222657868 3.003369997429869 11.729458214065797
10.56533597686593 4.478119145772441 10.085817247017179
19.99657977135593 16.591431435086893 9.97272217744715
19.359259618625767 17.75521621584337 10.657323594174159
19.897857845730226 2.3067394124880485 10.681226270325947
21.65659307562366 4.322673251437625 10.468481386521262
24.74826679546948 8.934065432565408 8.992657124954988
22.861275559693517 11.950517779687749 11.080710811566469
6.472308440938124 10.238145258845032 7.621628392628267
10.024895307138372 13.72307636700748 8.355584409187205
9.647717053132206 11.4538058201435 8.020282979835741
7.486559355381798 10.816744380888759 8.36891900398485
10.605952212004974 0.23102957793947398 11.336779295896267
11.770155956653927 14.872671969595423 10.377131112617096
11.707155418601424 16.90118010582223 9.670010276460044
24.74004455152461 10.146405508435691 11.267284478195702
22.88082745081326 7.624270016614317 12.67129005076887
23.502638086537043 5.542053482204826 11.657030892115124
9.0608303298164 8.889048359629179 8.038707959369411
10.33409567809531 2.5327683030832158 12.544196423174757
10.536654370061582 5.949148624646279 10.064349102695669
18.079284479301542 0.19937791246992193 10.19658844529468
19.56231329517735 3.876893546521347 11.37136071393994
18.234379649365323 1.6709807647838186 10.426375051911286
23.046399794599427 4.780863951069091 10.539802103094534
20.66087658398548 4.825028221736879 11.380379547765731
23.35271275547539 10.581062494404 11.390394326431178
21.7721444771499 12.368100575558117 11.994434871683648
11.148015331206603 12.92396435201978 8.926980095806442
10.868101548213838 11.46066452774926 8.839779592067515
8.777809143593634 10.314951897192094 8.197339840219353
11.422759275197242 0.07868752096720223 10.183917813723475
11.018274371568145 1.2361241867952355 12.305888955152195
12.09654329237857 13.521452137073025 9.83976354135283
12.882303822414453 16.039541354301583 10.24588771485774
22.388510282435277 6.090949682686034 12.725735035336829
21.90337039054429 8.716546419925537 12.445099911628805
10.076511199728746 8.19279881399879 8.857927920256834
11.300470583482062 3.4908100003959586 13.135511006587151
10.14657901769373 6.717523468511861 8.85577003977091
11.148675310653681 6.66838754206635 11.147881757974506
16.740378675181812 17.67998816892938 10.25927763992425
18.24840421261577 4.319987831528491 11.420438662427525
17.07160586018504 2.317517381582817 11.105664762826784
20.960727246108785 5.843782182670993 12.422027189510068
22.330569586810388 10.069235975506313 12.38628383582013
21.41281316735852 11.185753736916205 12.716384219897822
11.062327999660727 10.529622187360786 9.951420023932247
12.501055695151294 1.3868125331558958 12.622710074701121
13.490887370053011 13.045860642219536 9.965307921418585
13.81798968351199 16.557954409868294 11.27619265148375
20.471214990380894 8.437444196666737 12.68993635137802
10.924254799502886 8.99726352407564 9.927462017511587
11.119223727827741 4.916350643376558 13.034533265899626
12.649193581877105 2.827130243528379 13.137392235728726
11.833568981860855 5.825546729909643 12.118430004221043
11.614125815706787 8.106048864096286 10.962691348067022
15.71642056303734 0.22319105496146063 11.008670801497885
16.479136810712685 16.498748158763533 9.470157345302045
17.30867597740487 3.4481335975156635 11.88914137002427
17.924766791253962 5.701055743446333 11.145170574799877
15.801200422843479 1.6250909303771206 11.18489770784845
20.00774442366903 7.035219530599907 12.809007089986
20.04313582151869 10.909772407065319 13.09174476391108
11.557917566130481 11.122718947968014 11.125085687200112
13.563237616939146 1.0657306646148472 11.638052609892757
13.845213835704035 12.091538614375526 11.049006567504026
14.582795866103087 13.891441308472725 9.473366500896493
14.341903367918922 17.917575251971297 11.373961236576825
19.589674943087537 9.568550320285711 13.03375864213545
13.754714154023207 3.4104651398713215 12.363155783432518
13.286128746596471 5.961468895715887 12.137850928594368
12.940189519752087 8.474223562584408 11.66317255195968
16.868524684489827 15.097467018610718 9.840870146730229
16.418226207575938 3.8936592762243203 12.945064221137034
17.52330679342398 6.552007249517792 12.236892109871455
14.412988654198152 2.354206023854907 11.377502373784502
18.61197039052591 6.771504037631281 13.207053044235906
19.163850704002858 12.005115269597106 13.545674289719564
12.910545442920748 11.075760389016397 11.535802273021222
15.132118759222596 12.163881649360107 11.717783527334255
15.843356610025708 14.046959781724004 10.174566998284469
14.188870633627268 4.8140869500800685 12.46712135863902
13.834791660268898 7.313396372673801 12.094527328069255
13.397830268014745 9.854293514400881 12.174590227123968
18.26020134523232 14.861766987396845 10.268960436976482
15.55772300515825 5.047210429759502 12.836616894152066
16.15093453150857 6.416212096815357 12.720976632214025
17.847934183956408 12.110028093344498 12.971567419925705
19.705061349752008 13.018389522338257 14.496303639172947
15.441979109626613 11.264719598028044 12.835510288774675
16.18308103041009 13.052429034159443 11.245429021992098
15.153760585258091 7.545939221021531 12.65950470349959
14.672195582038787 9.97745993563874 12.976713134930606
18.588871109878117 13.76303106052041 11.158781820941872
16.70539976448658 11.431614816434912 13.545784950257307
17.58471238114604 12.890959089758192 11.751645651882615
15.445334005149268 8.82321928239716 13.246005553520302
