N=246, ave_E=-5.779729674796748 
1
29.82 0 0
0 22.13560932073025 0
0 0 10
C
246
C
2.481641274 0.7167643111708379 5.0
3.8056284000000002 0.5850153780547835 5.0
1.804488714 1.9160694106070708 5.0
1.5219114120000001 21.916289703580453 5.0
4.48823802 1.7936085791619947 5.0
4.45173834 21.482763795033954 5.0
0.436928604 1.8035120507720894 5.0
2.4021679920000003 3.064940737766952 5.0
1.355718588 20.608385091255787 5.0
30.1805238 0.38346180094580634 5.0
5.86583256 1.7988657863756683 5.0
3.7465848 3.03184800183246 5.0
3.77225982 20.178799321168377 5.0
5.85840738 21.519154736757233 5.0
29.43955644 2.9187350382035286 5.0
1.654252572 4.2486645818023225 5.0
2.4242765399999997 19.8274186588111 5.0
-0.24412232459999997 19.89612759014265 5.0
29.247456 -0.5409478070190737 5.0
6.54880002 0.6193499216721682 5.0
6.49384176 3.024189081007487 5.0
4.37796366 4.1891640639481995 5.0
4.556376719999999 19.067303970346547 5.0
6.5718210599999995 20.32932146454934 5.0
28.08710016 2.7337034798915445 5.0
0.2224655496 4.191643252192121 5.0
2.312335242 5.468248112937276 5.0
1.9549067580000001 18.576955952673732 5.0
0.535623858 18.51116892177252 5.0
27.94515696 19.601458358865088 5.0
28.014399 -0.1127981952643908 5.0
7.907607960000001 0.6207754549124233 5.0
5.66970642 4.1466415584430765 5.0
8.03953164 3.334242560762956 5.0
3.7027494 5.43531032626803 5.0
5.90161656 19.1223552307272 5.0
7.94661252 20.3437981530451 5.0
27.57965322 1.2928169810116579 5.0
27.05547726 4.056372543633139 5.0
29.2957644 5.412399970621074 5.0
1.548024786 6.6276227867198445 5.0
2.7661688040000003 17.502891917213258 5.0
-0.100541112 17.257341603018396 5.0
27.26436636 18.105755237063345 5.0
27.246265620000003 20.910270531171907 5.0
8.6155944 21.58089095115275 5.0
6.290886840000001 5.266238542276293 5.0
9.487233 3.8526585310544585 5.0
7.695945599999999 4.961032760962064 5.0
6.54277638 17.95127081961397 5.0
8.61288078 19.128066217931952 5.0
26.23396608 1.4134361297612488 5.0
25.77050364 5.087582039448678 5.0
27.89121258 5.523919170378913 5.0
25.86327366 2.7588716676892147 5.0
0.178676967 6.577042919421975 5.0
2.036029086 7.852540999701094 5.0
4.241745900000001 16.89575642476427 5.0
0.586458012 15.97704009551668 5.0
28.30064118 17.032355269882494 5.0
26.12512308 16.826139933450573 5.0
25.952405640000002 21.07650895717059 5.0
9.94863786 21.71273064026702 5.0
5.743928400000001 6.579964819852312 5.0
10.7015034 2.9427300387072 5.0
9.92427492 5.348627280168051 5.0
8.14333506 6.384972237345999 5.0
5.76474276 16.82153572671186 5.0
7.918313340000001 17.90270529276429 5.0
9.935427599999999 19.081360082265213 5.0
25.397515079999998 0.24799629902480136 5.0
25.20159768 6.428247353568027 5.0
24.53580654 4.435179225938795 5.0
27.377264880000002 7.1434046195021805 5.0
24.527546400000002 3.1223605083449257 5.0
1.135059534 8.994339999683001 5.0
3.61424364 15.534593536413922 5.0
2.057234088 15.517881151376773 5.0
29.38951848 14.861361114533235 5.0
28.011566100000003 15.512148028562704 5.0
25.31858154 15.489680385102162 5.0
25.184481 19.992638846781034 5.0
10.547274360000001 0.8470522940717241 5.0
6.57864984 7.851744117765548 5.0
12.28810632 3.1813740427939927 5.0
11.2642068 5.000035704585191 5.0
10.44376914 7.084103322131943 5.0
9.01169346 7.447724976443579 5.0
6.41809896 15.60266053507517 5.0
8.5999389 16.631590063130673 5.0
10.60763004 17.893032031491128 5.0
24.0195627 0.3005395948694187 5.0
23.768120460000002 6.440908922099484 5.0
25.94823084 7.465986854133181 5.0
23.217494159999998 5.139578585743074 5.0
28.30952754 8.34556742610172 5.0
23.04510474 2.898746582986909 5.0
-0.2799787872 9.340895099208355 5.0
2.062861122 10.00370164909898 5.0
4.39194924 14.407381902974377 5.0
1.61254632 14.15074164850983 5.0
29.2312041 13.26950090584224 5.0
27.21930834 14.259095456134805 5.0
25.91590596 14.28072194644116 5.0
23.96824248 15.49021163972586 5.0
23.85665604 20.10280777437031 5.0
11.90348796 0.7641035252641516 5.0
8.16525276 8.543105603679916 5.0
5.5238568 8.804726370241626 5.0
13.26414474 4.459351311317033 5.0
12.77545458 1.8639024201209058 5.0
12.4842921 5.627513821999931 5.0
11.30216766 8.256980717600158 5.0
5.73277572 14.45751905808583 5.0
7.769511539999999 15.482574854510208 5.0
10.042600680000001 16.63187782605184 5.0
11.87823042 18.06137334037528 5.0
23.26830744 21.32199286453749 5.0
23.294727960000003 1.4480451549342108 5.0
22.99876446 7.5889944351284795 5.0
25.24865364 8.683334688726742 5.0
21.735619080000003 4.9135518789690975 5.0
27.39769158 9.63264243005558 5.0
21.75306378 2.1466383444136614 5.0
-0.6829585140000001 10.787855609285849 5.0
3.42673548 9.430145875989538 5.0
2.628257268 11.383060008310965 5.0
3.85536816 13.209911845550833 5.0
2.458086456 13.073866390665625 5.0
0.040109987400000005 12.00577896972175 5.0
27.87964242 13.055958682725155 5.0
25.23299814 13.096975966796467 5.0
23.088522660000002 14.232731945433814 5.0
23.334656940000002 16.672563075983344 5.0
23.17398678 18.972275799532653 5.0
12.40610406 21.601344254165102 5.0
9.4238655 9.625359814589059 5.0
7.32069072 9.85970951046763 5.0
4.1909028 8.312408283339266 5.0
6.01883898 10.348508035487995 5.0
14.61200874 4.688012155600177 5.0
14.107394699999999 1.560272694190313 5.0
13.12056144 6.880765614911716 5.0
12.59188266 8.080537775704617 5.0
10.78288218 9.518511228397893 5.0
8.19903882 14.159263858098312 5.0
11.037574800000002 15.55234629508915 5.0
12.7981476 17.100798573902193 5.0
12.35454528 19.267277064950022 5.0
21.91331646 21.460805270587787 5.0
21.571430160000002 7.459191222071718 5.0
23.7708639 8.779469640006672 5.0
25.98538656 9.774664499457385 5.0
21.0638043 3.570606597089714 5.0
20.9153007 6.160937735410888 5.0
21.34339662 0.686757279175656 5.0
3.99641676 10.832370319629838 5.0
1.3569501540000002 12.008081073091105 5.0
4.6529637 12.079623362415706 5.0
27.26693088 11.757129670221985 5.0
23.843684340000003 12.93611649386272 5.0
21.793768080000003 15.058102410175884 5.0
22.00235898 16.51296533278088 5.0
23.93952582 17.853254341541778 5.0
21.78025962 18.959282196861384 5.0
13.73771616 21.414231948576973 5.0
11.6265198 20.457641591781613 5.0
8.427370560000002 10.62812505242746 5.0
6.060855360000001 11.97731257613529 5.0
15.4263333 3.698461876526252 5.0
15.238407660000002 5.960499793011676 5.0
15.113491680000001 2.4034844600448904 5.0
14.57834196 0.27366475159312015 5.0
14.47889226 7.083948372866699 5.0
13.4942955 9.07703863610525 5.0
11.61435324 10.643664250170612 5.0
7.29716274 12.848548023389913 5.0
9.51920004 13.779129039233412 5.0
10.75046784 14.25869701516703 5.0
12.38564754 15.777177678959807 5.0
14.23896054 17.8037369834913 5.0
13.69256868 19.13289178076387 5.0
21.14676354 20.21505744923573 5.0
25.274447939999998 11.000822306560595 5.0
19.65084324 3.4878858250581444 5.0
19.5070512 6.099378605889938 5.0
20.056186500000003 0.7310794097185542 5.0
23.55478818 11.444375646129389 5.0
20.42007996 14.939920392012507 5.0
20.90212026 17.628644313764326 5.0
14.3939649 20.21023188640381 5.0
8.480897460000001 11.918365448514185 5.0
16.74056034 3.8371414689206267 5.0
16.642959480000002 6.032396252085407 5.0
16.32594306 1.6837119195673655 5.0
15.858276000000002 -0.38269812242424117 5.0
15.05113806 8.636385061357473 5.0
13.0513194 10.401611362248428 5.0
11.0599398 11.93031867754738 5.0
9.69665886 12.440633014827496 5.0
11.72441886 13.17075395266246 5.0
13.31445108 14.714756974002038 5.0
14.79054108 16.42174448677015 5.0
15.926653260000002 18.173335252319536 5.0
19.72151664 20.12686918170194 5.0
19.376350140000003 1.9670189425805957 5.0
18.83234388 4.846857288085737 5.0
18.68592768 7.295144221395786 5.0
19.3868766 21.696195340104435 5.0
22.10890584 11.164205238956905 5.0
19.9158834 16.294973852190328 5.0
19.60110348 13.756174412367812 5.0
19.55673132 18.58324246572082 5.0
15.822491999999999 20.29025211409825 5.0
17.445505139999998 2.747117659139907 5.0
17.39060652 4.926877515780177 5.0
17.25546228 7.175678337891804 5.0
17.01979482 0.27513455605201664 5.0
18.07396164 1.4394144808600582 5.0
16.5591951 8.324937038214797 5.0
15.43211838 10.234819546016725 5.0
14.263055099999999 11.118650154974842 5.0
13.10016456 13.367628061961037 5.0
14.52341352 15.128670732690372 5.0
16.2213345 16.7190699911662 5.0
16.90886442 19.17864608522982 5.0
18.036239339999998 20.065730628758086 5.0
19.0109955 8.818339769973877 5.0
18.02800902 21.476388739549584 5.0
21.35535444 9.916841518124436 5.0
21.44290596 12.367541232850444 5.0
18.591010620000002 16.459817734801806 5.0
20.110220339999998 12.492186848935475 5.0
18.261618900000002 13.929252741646604 5.0
18.18176094 17.954546889793438 5.0
17.5484736 9.267360605044889 5.0
16.95323658 10.484575625982524 5.0
14.347594800000001 12.470914528378252 5.0
15.645271740000002 14.39505236858273 5.0
16.60723512 15.383739358893147 5.0
19.8978423 9.991482792753937 5.0
17.847955860000003 15.213826421747223 5.0
19.27060842 11.339098688199996 5.0
17.30675268 12.816739152796023 5.0
17.82195282 11.54843514554614 5.0
15.777851459999999 13.039556196218493 5.0
