N=96, ave_E=-7.342308958333334 
1
17.04 0 0
0 14.757072880486835 0
0 0 10
C
96
C
2.48521584 0.6135695762248815 10.0
3.9056020799999995 0.6147589962990488 10.0
1.7766244799999997 1.8428780183880764 10.0
1.7744604 14.140847031143466 10.0
4.6154544 1.8462278739319469 10.0
4.6149261599999996 14.143813202792444 10.0
0.357552024 1.8428485042423155 10.0
2.48645976 3.0742819649003006 10.0
2.48388672 12.914430975264846 10.0
0.3561786 14.139666465313026 10.0
6.0350567999999996 1.846862428065808 10.0
3.9053294399999996 3.0765988253425367 10.0
3.9039321599999997 12.915567269876643 10.0
6.03577248 14.144285429124619 10.0
16.68720384 0.6128877994578031 10.0
16.68705048 3.072658686883447 10.0
1.7768119199999999 4.303841277302464 10.0
1.77400032 11.684856905789802 10.0
16.68521016 12.911140148012498 10.0
6.74589744 0.617157020642128 10.0
6.743767439999999 3.077336678986561 10.0
4.61448312 4.307692873324271 10.0
4.61252352 11.687586964272693 10.0
6.7450965599999995 12.915980467917297 10.0
15.26743104 0.6138661933897793 10.0
15.26712432 3.0738097385681247 10.0
0.356597784 4.303118180731319 10.0
2.4859485599999998 5.536071619895995 10.0
2.48339256 10.458440849911183 10.0
0.35369928 11.682790915586533 10.0
15.26514768 12.911582860198912 10.0
8.16689712 0.6171053708870463 10.0
8.16381288 3.077543278006888 10.0
6.03270528 4.308002771854761 10.0
3.90534648 5.538580322285678 10.0
3.90256896 10.459636172814502 10.0
6.033523199999999 11.688059190604868 10.0
8.166539279999999 12.915522998658002 10.0
14.55773208 1.8443979968947666 10.0
14.5565904 14.14161439893325 10.0
14.55526128 4.304490588509204 10.0
16.68527832 5.534079415057129 10.0
1.77495456 6.766265486432018 10.0
1.7735232 9.227848542407386 10.0
16.68328464 10.453630044152145 10.0
14.5537788 11.68143326488153 10.0
8.87625528 1.8466705861183614 10.0
8.8772436 14.143990287667009 10.0
8.8717056 4.3073977318666605 10.0
6.74122848 5.538993520326331 10.0
4.6134948 6.770131839526706 10.0
4.6125916799999995 9.231065584295331 10.0
6.74151816 10.459621415741621 10.0
8.873920799999999 11.686509697952417 10.0
13.13782296 1.844988279809986 10.0
13.1375844 14.142130896484067 10.0
13.135113599999999 4.304992328987141 10.0
15.263426639999999 5.533592431652073 10.0
0.355047144 6.765557146933755 10.0
2.4838356 7.998982812430605 10.0
0.353113104 9.225457896600748 10.0
15.26294952 10.452272393447139 10.0
13.13421048 11.681551321464573 10.0
10.29764688 1.8465082583166759 10.0
10.296743759999998 14.143606603772115 10.0
10.29265416 4.306807448951441 10.0
8.16035376 5.5381376100992625 10.0
6.03106944 6.770072811235185 10.0
3.90372768 8.000856960686427 10.0
6.0309672 9.23072617161908 10.0
8.16178512 10.457909595287486 10.0
10.294272959999999 11.684532250186432 10.0
12.428004719999999 0.6159616977388086 10.0
12.425840639999999 3.075757672188349 10.0
12.4260792 12.912497798717503 10.0
12.422586 5.5354370657621335 10.0
14.552006639999998 6.763387857220323 10.0
16.683233519999998 7.994954131534233 10.0
14.55166584 9.22249172495177 10.0
12.42229632 10.452405207103064 10.0
11.00773776 0.617096516643318 10.0
11.00564184 3.076185627301883 10.0
11.00606784 12.914032534297073 10.0
11.0009388 5.536027348677353 10.0
8.868791759999999 6.767446052262457 10.0
6.73995048 8.000163378261046 10.0
8.86976304 9.22737631607521 10.0
11.0025576 10.454294112431766 10.0
13.131569279999999 6.764037168427065 10.0
15.261654479999999 7.9929176554767265 10.0
13.131228479999999 9.223037736648347 10.0
10.289058719999998 6.7665901420353896 10.0
8.15885424 7.998348258296744 10.0
10.290575279999999 9.225738280985476 10.0
12.42074568 7.9934636671733035 10.0
10.99909848 7.994791803732547 10.0
