N=241, ave_E=-5.514410788381743 
1
29.82 0 0
0 22.13560932073025 0
0 0 10
C
241
C
3.7351339200000004 0.6255722414522255 5.0
4.55339472 1.8054887606844308 5.0
4.42430394 21.553642016078932 5.0
2.3618155680000004 0.6133024732057448 5.0
5.9204628 1.746539419502394 5.0
4.34170254 3.158419415928396 5.0
5.79381726 21.625162169794212 5.0
3.8300509799999998 20.296981339331754 5.0
1.676217984 21.527300640987264 5.0
1.5649297439999998 1.7719245362714073 5.0
6.49396104 0.6059578780331265 5.0
6.6326538600000005 2.9154368324147395 5.0
5.76489186 4.187326808374579 5.0
3.12406248 3.6498963496765695 5.0
6.69023628 20.596210506129385 5.0
4.70273328 19.21224794017869 5.0
2.360354388 20.075957280264262 5.0
0.284520075 21.585672242766027 5.0
0.1979120598 1.7516970164741243 5.0
1.84904874 3.0824057335210084 5.0
7.8312091200000005 0.4359873883029672 5.0
8.06893416 2.7616828900729473 5.0
4.6408866 5.255746263458266 5.0
6.75187422 5.349224941619711 5.0
3.14082132 5.026554164551425 5.0
6.10546608 19.40330038422591 5.0
8.049223139999999 21.216693770998774 5.0
4.18133058 17.814472754011856 5.0
2.76155565 18.349401888856622 5.0
30.7408416 19.356638519777814 5.0
29.3721036 0.6077397945834452 5.0
29.48476356 20.403697111866993 5.0
0.404198172 4.022527196981742 5.0
8.66521488 1.4808368465819406 5.0
9.028571580000001 3.8248340701383006 5.0
4.807043640000001 6.7862244275028765 5.0
8.118345900000001 5.136855905796624 5.0
6.261096660000001 6.630411873494257 5.0
1.681782396 5.175548950889261 5.0
3.1822114800000003 6.758245017321474 5.0
6.79585872 18.26743372754196 5.0
9.25675422 20.620271913461018 5.0
3.6824718 16.331918184146627 5.0
5.7394554 17.331318809368277 5.0
1.766098446 17.313765271176937 5.0
30.2222718 17.651665347457886 5.0
29.154000120000003 18.895066794221943 5.0
28.006645799999998 0.6072572383002534 5.0
27.92669838 20.143094583334037 5.0
28.57242066 3.2731482790377404 5.0
29.37952878 5.398698028451542 5.0
10.10710134 1.4096354456408795 5.0
10.2054477 4.9427930188817815 5.0
10.35028344 2.799490510792755 5.0
4.741678200000001 8.241618604731569 5.0
9.2947449 5.951911176595233 5.0
7.05359298 7.8282139650576115 5.0
1.498100142 6.561038873883088 5.0
2.046421356 7.94792334026412 5.0
8.3129214 18.09249600708023 5.0
10.63643616 21.11980620900194 5.0
9.350776680000001 19.25025478138238 5.0
2.277687384 15.96338242456579 5.0
4.72906434 15.457251717447292 5.0
6.05444406 15.983038845642598 5.0
29.093107680000003 16.79028024635099 5.0
27.403089 1.9031001571060548 5.0
27.32591484 21.48878468076919 5.0
27.05932404 18.74306156501649 5.0
28.0357203 5.4382543623076876 5.0
0.1646776698 6.6954684292878826 5.0
11.0521866 0.29157245953359096 5.0
11.53562844 4.676833672893208 5.0
11.62947198 3.3457973488283774 5.0
6.0843237 8.91186271935396 5.0
3.3669762 8.918990385555235 5.0
9.55408944 7.227254307609106 5.0
8.50111542 8.086536525830534 5.0
0.68574072 9.174900164912199 5.0
9.6446826 17.17134476080736 5.0
7.708708560000001 16.378292285673556 5.0
11.684907359999999 20.070600462808645 5.0
10.72574706 19.00966284367537 5.0
1.6829543219999998 14.614504799388449 5.0
4.83883176 14.13254617764819 5.0
7.27751136 14.836259333563525 5.0
29.157906540000003 15.391287601671516 5.0
27.69469878 17.385683865859992 5.0
25.911552240000002 2.028719740001199 5.0
26.00882508 21.143668395849687 5.0
25.62915684 18.658459266192658 5.0
27.466635420000003 6.7124464416368825 5.0
29.51649204 7.936811264385113 5.0
12.51676608 0.32013624980106126 5.0
12.51930078 5.589794743717406 5.0
12.84654546 2.7646933329405665 5.0
6.6367392 10.238405514726685 5.0
2.0781021240000004 10.013153554278933 5.0
4.16090388 10.256446036323078 5.0
10.92730044 7.720524225712259 5.0
8.92953936 9.333125500336779 5.0
-0.1192624062 10.462351474224512 5.0
10.95747828 17.699522534809304 5.0
9.23582058 15.780675105232483 5.0
0.2737288134 14.357466103956131 5.0
2.457895608 13.435872145496846 5.0
3.8795223599999997 13.191162984456176 5.0
6.16209426 13.815984828752429 5.0
8.38753104 13.857068519651703 5.0
27.8329443 15.101709560537723 5.0
26.9474394 16.16674226739534 5.0
25.23496626 3.264515391402656 5.0
24.739178940000002 1.0932888121555273 5.0
24.8576538 -0.2629710387302754 5.0
24.949708140000002 17.363371171664696 5.0
24.4243692 19.56325229717751 5.0
26.1674973 6.753175962787027 5.0
28.1734887 7.955914295228904 5.0
13.30213542 1.4703047236671372 5.0
12.2548272 6.953126921781182 5.0
8.1062688 10.365198284915826 5.0
5.87442072 11.466976103245853 5.0
2.823324798 11.200042790447169 5.0
4.402923 11.788761455941309 5.0
11.20543158 9.166931345556735 5.0
28.257849479999997 10.36867357557918 5.0
0.513282714 11.86971137922722 5.0
12.18984942 17.12406309929828 5.0
9.75081198 14.173253563189013 5.0
10.78550634 15.410324225687344 5.0
29.53316142 12.978705406195806 5.0
1.876799232 12.169383258211266 5.0
6.62800194 12.565256495303204 5.0
7.9580634 12.597330993208944 5.0
27.38498826 13.88790342343548 5.0
25.50656682 16.072488842907667 5.0
23.72670048 3.1672957952660084 5.0
25.9551789 4.40226357487887 5.0
23.46619296 1.7782597476590005 5.0
23.93132532 20.840277734499757 5.0
23.57947914 17.48082271472049 5.0
23.23735428 18.721324396663533 5.0
25.42002918 5.633069859939433 5.0
25.478088720000002 7.910292804418879 5.0
27.51652428 9.149090044444227 5.0
14.688616320000001 1.5265003950496752 5.0
13.46435622 7.682428842071282 5.0
8.73153456 11.53865120622638 5.0
12.732871620000001 9.145459804515628 5.0
11.11066362 10.634632921567755 5.0
27.53707026 11.515940071063309 5.0
12.3396651 15.740764601627205 5.0
13.3785939 17.822375166539356 5.0
10.67872092 13.001217320874987 5.0
11.8580721 14.164775624819173 5.0
28.1705067 12.793718119102461 5.0
26.116594560000003 13.79570861061464 5.0
24.115702380000002 15.443262012356591 5.0
22.5919302 4.0233683501359305 5.0
22.14659832 1.189516732994606 5.0
22.54842282 20.7930182086 5.0
22.62330084 16.377805302268502 5.0
21.75333216 19.223979813118675 5.0
24.043776540000003 6.00397412971759 5.0
24.17859276 7.437498324937401 5.0
26.0834049 9.124364568832972 5.0
15.2717166 2.8439830855274226 5.0
15.461968200000001 0.3777397459363976 5.0
14.71059366 6.765239869866824 5.0
14.44388358 9.140080851450689 5.0
10.11694194 11.669162758781406 5.0
13.613903520000001 10.55324028609543 5.0
12.3591972 11.277163253320591 5.0
26.13785622 11.46354508380114 5.0
13.726831859999999 15.57233475030577 5.0
14.72747178 16.937548455161807 5.0
12.411948780000001 12.698025880008947 5.0
25.51658634 12.627789591634269 5.0
23.80742322 14.067799520385053 5.0
22.639970220000002 5.486576397454841 5.0
20.17883616 1.0367920964862276 5.0
21.79403646 21.84459246499061 5.0
21.73600674 15.124819136668565 5.0
21.45501288 17.445228654932755 5.0
20.355132 20.023916462751227 5.0
23.01307806 8.087864662389777 5.0
25.35865962 10.284204090411274 5.0
16.6553646 3.074901761961281 5.0
15.06145578 5.317371799807179 5.0
15.5969037 8.042353849626355 5.0
14.65229556 11.550073180635875 5.0
14.2840782 14.245725548105083 5.0
15.91236948 15.826584358963677 5.0
15.426810419999999 18.314715389051038 5.0
13.81900548 12.908668338305015 5.0
24.2484312 12.771826001484259 5.0
22.480761240000003 13.91911463257771 5.0
20.91175212 5.328107570327734 5.0
22.12474026 7.030114570998682 5.0
18.978939 1.7627116956721196 5.0
20.341713000000002 21.56597155047058 5.0
20.08493298 16.923536614461785 5.0
19.08113214 19.303911498375832 5.0
22.76601936 9.419365834250344 5.0
23.83223346 10.395723290169114 5.0
17.36904666 4.336697900070867 5.0
16.965850439999997 7.503860881680951 5.0
16.50086718 9.537902022162854 5.0
16.019304 10.921089841787325 5.0
15.567680100000002 14.43930145161487 5.0
17.25104892 16.166631589348736 5.0
16.78725846 18.47260869033581 5.0
23.40846144 11.733843009216578 5.0
22.1605839 12.436869961242971 5.0
19.48966614 5.258513214623357 5.0
20.6994039 7.006761503165311 5.0
19.503920100000002 3.0285497960436714 5.0
18.84212484 21.56280615833771 5.0
19.00240734 17.832092699031158 5.0
19.685673 15.407335918429045 5.0
17.4851061 19.678423872473267 5.0
21.39245052 9.833080372454791 5.0
18.79742466 4.146663694052398 5.0
17.204022780000003 6.007936403786001 5.0
18.08973642 8.876047303473019 5.0
16.911876239999998 11.882284405321395 5.0
16.44742974 13.332875155327487 5.0
17.65913562 17.43593169901805 5.0
18.15036048 15.178077412694243 5.0
20.74359714 12.750044561912661 5.0
20.87814498 11.225122435807554 5.0
18.670361640000003 6.329566807216211 5.0
19.30958316 7.639507895598387 5.0
17.513494740000002 22.1201808010337 5.0
19.84348044 13.796239865238336 5.0
16.79754636 20.896679267048977 5.0
19.8802485 9.167108430431302 5.0
18.38331432 11.644614368044714 5.0
17.69098338 13.886619558094877 5.0
19.4848353 10.70874294157356 5.0
18.67083876 13.06076210994775 5.0
