N=137, ave_E=-6.6136461313868615 
1
20.088475290219648 0 0
0 16.23732126298464 0
0 0 20
C
137
C
2.2681294795928295 0.6132982376920666 8.749421679115901
2.782032854467229 15.764214433345057 9.504748350028162
0.9907073535828204 1.0866681119361103 9.224188743017152
3.215441708853718 1.6325652290655275 8.33757964203923
3.9539543259480627 15.998194232744664 10.330978850626746
2.445932574386564 14.424213258795987 9.149210631018441
1.0363403340520834 2.1063540261981566 10.333921387852357
19.939438892041508 0.2993382649473744 8.938479695861322
4.214240700283439 2.152110797517247 9.285585913974582
4.731197523401951 0.8905115286864982 9.891012948143768
4.746183525968455 14.82644418112264 10.907376623320204
3.5666686108279184 13.49715963860714 9.134667706653413
1.0463946159348383 13.960248041027464 8.404692125684868
2.2963336989002983 2.282447775295225 10.98348648040568
20.144923905785166 3.1887988108737644 10.333921387852357
18.47989063135531 0.6647916546133696 9.114805580380544
0.009653255650536279 15.300216740934006 8.073713275058122
3.497062043947307 2.8666341196948864 10.370080643374749
5.6487988977086045 2.7917638313512643 8.831925895941652
6.135582830941206 0.6503534285463237 9.71406460382682
4.590096072963449 13.582178252740128 10.142034008390006
6.104787198321301 15.168532065491203 11.420792781934747
3.3539919229303625 12.401903607455038 8.366269379988925
1.9500043672018534 12.453278491931123 7.976439784849983
19.692089495793034 13.02971963408834 8.51962083924666
18.650321255717532 2.9340839522213242 10.368213263981577
0.4147366166042298 4.543267438668154 10.696136402874036
17.911969346425508 2.0438565766569288 9.493713835432128
17.61277159545298 15.923486317613673 8.331637980333674
18.665287169808746 15.048749346534164 7.613545722776241
3.8364769224508586 4.25305779573483 10.623308606540196
6.731186034820929 1.7355910324791652 9.051654204538615
6.095365703410186 4.174793907247244 9.290169481576012
6.807863745003697 16.220223363694718 10.74485802885961
5.437508314606073 12.352607100100617 10.40261831461947
6.797236941575171 14.376654144816703 12.458885962777224
4.109820805724877 11.18007765705797 8.62317551468638
1.1694003678319114 11.221060655925742 8.18943421018065
18.487705048243203 13.587569043399439 7.991152470978037
19.85982826446637 11.55882941283835 8.537728760635023
18.018759681068317 4.119408404419203 11.01602415165041
1.4866938173458726 5.279191550270407 10.028406801678003
19.20980538102544 5.191412591522711 10.972565140318324
16.533277198782443 2.4762239672476833 9.109995663761762
16.59942854791314 14.80691068364327 8.926143674415496
5.219970215688285 4.840913774739925 10.26584692088296
2.8760268303501664 5.343881038182138 10.563099767923877
8.051320276993003 2.2109548497743035 9.4714184572227
7.5302252279647055 4.558108350302523 9.068573793585873
8.015783764204604 16.772340998599983 11.264725134468758
5.333128596998092 11.219388211835655 9.460440529881001
6.386628506643082 12.233993468274514 11.49667629000287
6.302015848720677 13.040907148438535 12.631533675764437
8.256122282576793 14.674365430173527 12.566458333274994
3.368556067515772 9.9154826024542 8.671897140671955
1.8667597344467124 9.91303076694349 8.498400618869663
17.180768934336804 13.418197545305247 8.631324079311145
18.807473397912922 10.610358765903628 8.93819675958963
16.84205715246841 4.9359832907347005 10.379530714849306
1.057254445676731 6.294852232591359 9.091435044338684
18.75861822600711 6.279524201319102 10.016749827284237
15.351452108983533 2.388704805640196 9.988852310895286
15.252194952574559 15.078187609983956 9.456592596585974
5.174007784224263 6.381932986524745 10.438551221124516
3.705741125262109 6.555737273323734 10.328432424181507
8.603592639671723 1.694721694860233 10.663146033594604
8.528200591907527 3.477953027924995 9.015381774507542
7.993907414613555 5.923147474239115 8.833340577300117
8.662030014290972 16.033997526129546 12.326302025861775
6.241208034017182 10.022746346717476 9.570276390552316
7.6636930577929245 11.587131063799731 11.18476734408825
9.337243845745833 13.63545290380398 12.316851954387218
4.041821316867483 8.718239956449292 9.075024740580474
1.1904249660706552 8.663357810580402 8.47321929068897
16.632755328419613 12.122962665478225 8.931972161612379
17.410319941478143 10.857831779272777 8.622100356853949
19.13198262775113 9.31721850051953 9.514481357774411
17.273115655245945 6.1513143126265755 9.717799362613167
15.439359276853535 4.738764786674489 10.800313538111485
1.9764689245491887 7.414123261891417 8.754740881023736
19.76583428858343 6.87283592026856 9.120124782288379
14.860710746118757 1.1272662862899507 10.307325378313191
14.70729506032735 3.5335983278932437 10.551329619021434
14.700927013660351 16.370467297341115 9.30946573530549
14.749259885208618 14.193821907395497 10.503569976359618
6.092151547363751 7.471668328447434 9.933227039880396
3.2494715859953502 7.544784986094654 9.369617986667475
9.766333677944925 2.3238691818370985 11.253011572820661
9.9432327913506 3.7469729666101244 9.193914561945974
9.431659679609865 6.06277219977952 8.518432506905548
7.507444896985597 7.156047277737539 9.604398504918517
9.949038360709473 16.507023169162814 12.791279494762438
5.507777801171262 8.715512086477109 9.401193674588438
7.57452031597964 10.317323829070544 10.333695038835003
9.073281280432347 12.167826384127851 11.680075581314426
10.81380704500285 14.125787531303592 12.555367231424619
19.862098262174165 8.355011079796325 8.851618260451499
15.293014734364286 11.872810494100683 9.503107319652344
16.36389117513531 9.781005107754162 8.764643650533
16.28231187698173 7.270828901745577 9.441993084966601
14.542167793441745 5.948786204513367 10.813668130135405
14.642951673972776 0.7109283792500143 11.659251471717802
13.175287669269329 3.87446841316708 10.520036867372166
14.728809817363175 12.720252528137115 10.550254461188999
13.811268708482393 14.656293291607826 11.596552793910583
10.430378317138425 1.6317046510385893 12.33580868459067
10.56593534839683 3.2524003982608756 10.446303674968906
10.391466940501271 4.9872607512832055 8.570719129914455
9.865068533996356 7.26246668129514 9.206873043189525
8.752287533769927 8.06278800902639 9.83816045259147
11.105029671285163 15.593414050979721 12.774586254732533
8.811608801301945 9.496072594231306 10.15963264448932
10.19847695838813 11.27925521533228 11.558243222723323
11.87321296638316 13.141448641698938 12.563685557812402
15.093837501861758 10.404680617465402 9.273023543511403
16.606359071888264 8.388151452494075 8.50066410904321
14.904182206646793 7.183585774599561 10.045382977979592
13.087480943775779 5.449780847459324 10.569211191392451
13.65552275955732 16.00501390767512 12.039574408127855
12.037315721028968 2.888830537861386 10.748026915102571
13.887464295258196 12.230015324565082 11.671870429435327
13.282258800189748 13.469312632641124 12.324151710196908
11.952562443779529 1.7340160123166557 11.955089637400249
11.823031955108192 5.265584675052025 8.558496282977309
11.283134093208249 7.433120927769108 9.507068427456044
12.309835976816087 16.467404105281133 12.276392067535092
10.149561521056446 10.11682538611521 10.625006224170352
11.538016667690556 11.752313333008074 12.0535514599495
13.951506354483415 9.628260626633265 9.812300077358707
14.611031086736618 8.554340435620723 10.667786188450371
13.679709283806746 7.234700861935436 9.000272977599124
12.474682005047628 6.229837998254369 9.43961642028438
12.787620273118671 11.277631483205981 11.469967105955032
11.78791730030089 8.719733790005485 9.14298603304119
11.450732242554555 9.8715281737953 9.942111238811563
13.207047548703168 8.678978113635393 8.858578492735152
12.729524402579356 10.34973352231146 10.400637760717618
