N=247, ave_E=-6.524211740890688 
1
28.394707881587486 0 0
0 21.077604307279657 0
0 0 20
C
247
C
3.2378769344453024 20.81407102062574 11.768241869084779
2.0193549588272215 0.5568829523609129 11.9293546985135
2.744101482796861 19.383660481916515 11.87376505913969
4.1092253352075785 20.936595134463957 10.58366264732052
1.8722277799387763 1.9866948871078127 11.630210452099028
0.8338361521799099 20.746285445173527 12.231926877469014
3.376925818941437 18.589835748495744 10.759915512138825
1.219183572311722 19.375777457905592 12.023337182346925
4.49383165346368 1.1377395718609258 9.990287524467064
4.4008673798593625 19.615535206900894 9.963663915065009
2.3284341935890898 2.5273944548815965 10.3485064750054
0.6725314956461877 2.5481769727285744 12.086068347847899
27.900270833245404 0.187564752881491 12.003683702444981
2.5126420215001 17.39962558847228 10.27909084104941
0.37092006905717734 18.574807416624655 11.186635981288877
5.902095585558893 1.5648582533040714 9.78603987723029
3.4727295633339126 2.0478389094428002 9.545284748431477
5.732777942460987 19.315853828859993 9.434676791774027
1.7877109319292308 3.8212431952839583 9.869052976932394
0.30993675493989187 3.956076630037626 11.803492442048437
27.875794595051474 1.6822478627330346 12.322652825388449
26.91721765167696 20.57861310290912 11.065858491426354
3.053027386136168 15.962891768470868 10.303714823135852
1.0196567994985948 17.38961372642632 10.55155434585281
27.29688329076167 19.009090375771848 10.951822602227864
6.876289618268278 0.6160246022867089 9.345721942334123
6.181130379911253 3.0217275087002258 9.54859841655448
3.816390712824766 3.3163502617073815 8.76594428522678
5.910585603215488 18.39486790865341 8.267580025969057
6.929955616164478 20.227038663063695 9.511748141738337
0.7992996689835351 4.536933249537639 10.605087225702
2.7063791133761717 4.350775848295744 8.801194858190442
27.319826214729993 4.014883146054936 12.080869316827325
26.815507808045115 2.6461245999445024 12.265292087535101
25.367349311376273 20.74759225664058 11.643979314472194
26.94612346430042 0.14677031440100965 9.73107869215567
4.076401052896463 15.326495661621172 9.367774975014793
2.292046375438835 14.818609708232962 10.940281896006372
0.28765826713599835 16.11163642206734 10.694099207350916
26.14499517612931 18.050544164689686 10.680330344977758
8.028234522316401 1.0480396112104358 8.581750043355072
7.475275981030367 3.594680026585009 9.873109363772624
5.146853145324429 3.790891445081476 8.79593869496085
5.89184509601364 16.848130071772307 8.230558354525858
7.351304686419355 18.671764396438142 7.8005242172528035
8.119381534616297 19.734455050402566 8.55455511186285
0.15806652404690594 5.714117450099208 10.107351420743466
3.0624828238607367 5.7336774668963635 8.531816492673972
26.49811176334473 5.177797808500477 11.660204861833101
25.44023852650831 2.3407733463449425 12.135030650975708
24.35598660604989 19.65804873478868 11.390655099689578
24.80956366975037 0.9885839049804612 12.292029961355187
3.9460409490120947 13.792130378468443 9.592990142960904
4.730501543656712 15.89082743934428 8.181938844652155
2.78504665156211 13.496053270764085 10.515389657544869
0.9535681169041998 15.019985139784714 11.336493765541203
27.351429524602196 15.833032648333718 10.124376819030616
24.73335227379619 18.389914671641197 10.890576874161344
26.18148237575715 16.520267936772573 10.530929618397572
8.372463565964887 -0.10147643972905332 7.84154514332721
9.002456949733668 1.605788853108378 9.462900103028563
7.760926742319136 5.248386705325556 9.842257970903294
8.605356960009667 2.7843726065959498 10.24315468157754
5.445849419317545 5.115239478916471 8.397155876020246
7.114095296776574 16.45248236132036 7.50669326627694
8.051546577487183 17.540402907640598 7.26011065215836
9.494054527287592 19.348671658766428 9.170326060651078
27.20391901715735 6.197447994469438 10.704097343928943
1.073913407318732 6.834307808613892 9.757245243885581
2.0562737580148616 6.832726988290847 8.674247089754047
4.383858949838292 6.004545759849215 8.01117067189951
25.022353610614985 4.8425163567845795 11.711395321112583
24.576471512750416 3.5221941453722745 12.23044144003456
22.918589703668168 19.782090436137022 11.849083944844224
23.41013049180633 0.9701009537634077 12.89283227138089
3.9901947197679632 12.73747029174509 8.592033840978182
4.951809896885805 14.951398615368825 7.11031000011506
1.9793184207141834 12.271528770928368 9.933726637539959
0.27900299227953285 13.930757781997423 11.875536157619226
23.891647948062293 17.160710943649264 10.92816986769471
24.69689346887623 15.904865123812927 10.701926319986288
10.21985165544885 0.8163271837792183 9.875794577596434
9.088322546367587 4.877189015870054 10.946337910162207
6.78062784741521 5.636530788644111 8.51696211832948
8.244062696924347 6.878233535990263 10.008455566934558
9.531791094062221 3.479153677376809 10.996271460843303
7.8222025219276015 15.233669892251914 7.759046233506261
9.44251813248251 17.092335195276448 7.702771007624239
10.482303940398362 20.467829214670058 9.490152166729807
10.062005474335106 17.98227380433841 8.905803932901076
27.40850288744419 7.7825681487940965 10.672217571297306
0.44686455475727127 8.078666334102762 10.27920510546744
2.30232525969197 8.090785956579447 8.025625120780884
4.661559192920218 7.32145339936374 7.37208978183223
23.9844702481272 5.795308381890849 11.37242992501307
23.326564866510818 3.4506356787490597 12.931796437930679
22.490880218847817 21.013064682890768 12.463826513870146
22.13393034606838 18.57592452965294 11.954150077227002
22.644694351442375 2.2153616007166286 12.989899894501246
2.820585467946705 11.77112536706924 8.76194503059557
5.109968419786248 12.578271146412208 7.715797151280178
5.799164769488138 13.767385271011698 7.257025512871429
0.536276650405602 11.919343080558031 10.270063952024678
28.046219631756763 12.924217865907588 11.105051186812204
22.624420530014923 17.19002989124069 11.55068241714698
24.123433948499688 14.645204257596973 10.152542998076132
11.359473256276363 1.6719345909454828 10.466827279880185
9.96427088980668 5.907061839928045 11.33689369100432
7.027321069490442 7.058151966357203 7.99060307665329
9.498910022335345 7.171633787947597 10.761229552946222
7.793694235214489 7.793950055120027 8.948881618500103
10.97770640880842 3.0827260955654934 11.055289032758157
9.2477588311227 15.477179454813916 8.000715477649347
7.245875136055021 13.917499968888144 7.568110390970514
10.623084902075274 17.600516235124964 6.897549653734714
11.927452598031758 20.11477934252312 9.332124476588014
11.489151887171573 17.92216047685405 8.141032182995783
26.499020393996943 8.827954089622246 10.433919127486234
0.9598461868168189 9.37571887035983 9.834887915940065
1.8641807197251343 9.377679087560406 8.651337073938116
3.5697542801652973 8.358829850555122 7.339067365020245
6.019876833851718 7.698847904485581 7.1830964344030725
22.713920649257684 5.7050119250384626 12.004540685580238
24.05437801893167 6.650827263119023 10.201162507949839
22.45232020554462 4.604592359364006 12.909000686532782
21.197756827212437 0.5335395055906007 12.190277497095412
20.59155820864843 18.49218320774012 11.837371841995683
20.97255839900357 2.2082795256693823 12.753258284751677
2.854718746291161 10.443974011861378 8.302830598932719
5.904565925144591 11.357624925769029 7.72122471113682
0.034971774068199596 10.52693546241483 10.11420728582554
26.587015593721983 13.197193919291168 10.855897623287856
21.47645088507022 16.32532117453454 11.11464939792711
22.6440412731611 14.235455629863456 10.193735320777595
12.736616588533357 1.2142386289337666 10.39695458825205
11.437643887074373 5.675313580569505 11.326095703500055
10.363330114374511 8.187932634831698 10.329767110447733
7.591523915097586 9.216351104192487 9.191922035659609
11.979045782252602 4.276919922803037 11.340835813426512
10.162295582572872 14.310744832449059 8.249411983501563
8.057367492602909 12.7861384800906 7.8656549355325005
12.32134398576514 19.168163055478885 8.374017331368247
12.940178249336457 -0.23800830783780189 10.06124572806652
12.505483666377234 16.801738264691984 8.021968659403775
25.11844130208628 8.802597731640589 9.751874816237958
26.979004536027297 10.201560484723354 10.26994968760664
3.9202869489634944 9.823386108242142 7.3890580479103605
6.19842275701114 9.0884100460473 6.8022531290938915
21.59971231198419 6.572144566239948 11.606957643028998
23.971295103670144 8.050675275582694 10.193792452986607
21.17399045671555 3.9907703667274084 13.009496242194171
20.34009467564909 20.973354476375853 11.2151449535885
19.808063034071786 19.60853744227088 11.451443770083966
20.238583594972415 17.12736617363515 11.244682305650432
19.530731922192324 2.572521605703482 12.080983581245363
5.363192424674244 10.174159599123891 7.215604661333902
7.371322955475875 11.456183803509868 8.006771491805182
25.57480104715915 12.21278548772398 10.702897567539576
21.60019502201818 15.264401039331927 10.118035143829697
22.20116901433198 12.775431057102503 10.106437305399186
13.813031569616456 2.1547845659375064 10.150543370760534
12.311405838006584 6.773203833727089 10.930683684891473
11.770884178772684 7.908000972026718 10.206532935597465
8.194343563423688 10.31122725993413 8.33619580899881
13.46826302651822 4.180616348723076 11.578334406311345
9.483150959461062 12.93861386964946 8.204448935004962
11.690214813681095 14.395392491347094 8.634083146814902
13.816751276348944 18.832565439698378 8.069674053933202
12.464822444690801 15.630202862084765 8.874666878986659
13.860990231228458 17.36358288510683 7.852228866413441
24.705241512993414 10.21026553530226 9.463871350581854
25.8496902141608 11.08230925830734 9.869224373559451
20.25729570746638 6.109153910026244 12.006540312895844
21.746285794068946 7.610638130459616 10.473397483917172
22.62547113420654 8.879931461843997 10.538242541151785
20.05589204446228 4.802342442974904 12.615283999974952
19.232019595278018 0.6327749744297041 10.570407974828509
18.501054630282315 19.422527584259136 10.696270231293575
19.25686496467441 17.076337293607224 10.167968694510801
18.719182776228667 1.5774542296381018 11.515488976392337
19.009461874902136 3.932785877278082 12.2480952926209
24.24371393108609 12.306580826891373 11.368487802590877
20.421757855516535 15.041884770659976 9.243683817029261
22.965895286998894 11.692000040499712 10.787338972467122
20.748126627907503 12.47931179418953 9.4415326568561
14.919488151638276 1.6809494823077062 9.322583397682127
14.229212803036884 3.0239406571524907 11.243596793679107
13.719215454775691 6.657087311598285 11.028379762311019
12.5399264470376 8.486876296721846 9.159585205355828
9.658459885921983 10.431074518025323 8.08378570956047
14.232279431488095 5.455980030147955 11.65163503048051
10.297056866178886 11.761282125857742 8.19673608678763
12.367002676038732 13.074859503891716 8.838902116141846
15.001406883876657 19.210803048992513 8.909688923114253
14.013015497226478 15.528419110884911 9.268536327951779
15.007114220160856 16.603545551390635 8.667448356880989
23.356947203944117 10.348661085183858 10.042506363508853
19.137692375695387 6.900322865304291 11.6337526490581
21.598803681331983 9.605380446891948 11.425162953936017
18.198509017804 20.733133020085784 10.071586657898646
18.232639456677667 18.112111846871255 10.061531389111607
19.37904739268888 16.059321808176673 9.127076978424999
17.461212032950698 1.327193510416478 12.05967326728192
17.834432073346285 4.541212003212017 11.633809781267118
20.037974983789 13.676435408425785 8.922029480261983
22.042215439610853 10.978607445115527 11.753216098113235
19.526870241920424 11.494060258450048 9.698570465224837
16.10897085950586 1.177089351342186 9.982631808458745
15.626204036103106 2.9201334559391383 11.70299688638704
14.598627952576338 7.617382963837946 10.337708487501136
14.03828678724109 8.501124757233567 9.299559117448162
11.930803173561786 9.395890137681896 8.257124831718897
10.506439442097712 9.28274555776042 7.9828330962269405
15.64539885863106 5.417239393431174 11.95883491836642
11.750752330884639 11.849028192588948 8.344708508142382
13.786397333623526 13.0536765115629 9.280591224054426
15.703466036248907 17.86666314471298 9.300187571747351
16.17422189821775 20.205391963440118 8.484282494771595
14.637869438868693 14.252971119042806 9.225801435606858
15.99684015808147 15.624575141734722 8.105324552359985
17.87421305908839 6.076188536889657 11.487208532928783
19.171169736287776 8.458822005388857 11.764356878871599
20.152774787754257 9.378100639646552 11.042891343401404
16.833518620520326 21.102897432448394 9.473412429487745
17.172267485547664 18.07090513045052 9.010241610984664
18.194675732239986 15.690800974468196 8.32991126600691
16.31957440786359 1.7048809942381915 11.370830223160585
16.398483301066523 4.189974805035508 12.077269987659239
18.659355126722165 13.33765507439488 8.526560329444383
19.52334929814311 10.005580919874268 9.890648951940928
18.137148054071886 12.013855058271874 9.014697923288011
15.99757842048639 7.712358648846548 10.756601844015822
14.831521346621116 9.641212374214325 8.774799777624459
12.563778001658134 10.676375676953441 8.121550099720892
16.507377005792414 6.584896516845853 11.593131648446821
14.381522016113719 11.788113916140908 9.369774602330398
17.21332623314444 19.2200350396791 7.993116893850047
16.182825494705867 14.112488886334786 8.81964856170302
17.86637611971307 9.112522825374828 11.713509212846226
17.68606972466499 14.406542544025646 8.380359006569165
18.25632064305091 9.383665127183674 9.383143539240443
16.700830150589667 12.665701049078804 9.398055045793953
17.494377051756395 10.528052575443116 8.660421095171866
16.92071876842468 8.927145295492304 10.512990104766143
13.94006949267868 10.758662644169062 8.526788858280451
16.16638495884243 10.109662129943615 9.436390758044546
15.771102230422848 11.635427750538973 9.76250140711517
