N=188, ave_E=-6.485151063829787 
1
25.56 0 0
0 19.676097173982445 0
0 0 10
C
188
C
2.4567786359999997 0.5360280448719341 10.0
3.87111312 0.5549938349379359 10.0
1.710902052 1.7760530733609383 10.0
1.736906796 18.97612001701802 10.0
4.5524149199999995 1.7750909122091307 10.0
4.59062712 19.033711953446264 10.0
0.31794084 1.7464149681877685 10.0
2.374291404 2.989094302185543 10.0
0.318866112 18.981865437392823 10.0
6.017386319999999 1.778788050868122 10.0
3.7814997599999995 2.985926450540532 10.0
3.91305708 17.809740652641516 10.0
6.01879212 19.04000830454194 10.0
25.162772039999997 0.5476251365462794 10.0
1.647758628 4.2447637955375805 10.0
6.73066368 0.5806593360916785 10.0
6.72440148 2.9778986028935472 10.0
4.43494116 4.183885950881279 10.0
4.60110672 16.591770561474828 10.0
6.72721308 17.826681772308312 10.0
23.78784852 0.5811000806683757 10.0
2.341786752 5.4905952403026275 10.0
8.16189588 0.5891318635347954 10.0
8.199494640000001 3.0232913590739248 10.0
5.9156064 4.138906392741555 10.0
3.69434016 5.454292841016629 10.0
3.8988457199999997 15.386275115916444 10.0
6.01932888 16.599188450109416 10.0
8.146610999999998 17.835004761412907 10.0
23.10948612 1.8056537939494777 10.0
23.08990716 19.065764315742683 10.0
1.702048068 6.760943102146455 10.0
8.88841332 1.8072357521622657 10.0
8.86257216 19.05624108471048 10.0
8.97956028 4.253322897808263 10.0
7.03753704 5.238918281350218 10.0
5.762502 5.804684779490909 10.0
4.40518932 6.769049654182137 10.0
4.60013544 14.159431104924291 10.0
2.4980861519999995 15.405341254078031 10.0
6.724069200000001 15.387947584176231 10.0
8.845446959999999 16.62681369054169 10.0
21.690164879999998 1.8173138491347796 10.0
23.817600359999997 3.035982441751143 10.0
23.78585484 17.84261941101924 10.0
21.67661808 19.07009305712096 10.0
0.350233344 6.77227653411867 10.0
2.435346576 8.030484244006152 10.0
10.306686599999999 1.80410922032132 10.0
10.283171399999999 19.061081404615276 10.0
10.34116704 4.230754414349705 10.0
8.32951836 5.463245465230791 10.0
5.93457192 7.190059105413839 10.0
3.8157246 8.05651572056733 10.0
3.89452608 12.929202805218212 10.0
6.0195077999999995 14.164645270675395 10.0
1.783937196 14.16921012521976 10.0
1.7763791039999999 16.644305740929358 10.0
8.136617039999999 15.397569195694311 10.0
10.252294919999999 16.6401147322313 10.0
20.970574199999998 0.6072653546903376 10.0
20.9953674 3.034093536422441 10.0
23.138241119999996 4.2734908974115955 10.0
23.10779916 16.61876616679753 10.0
20.97540504 17.858714458507556 10.0
25.21731708 5.549013572812181 10.0
25.22181564 8.000615928496046 10.0
1.7613574920000001 9.238006327573453 10.0
11.00288988 0.5948733486901635 10.0
11.030162399999998 3.010403515424966 10.0
10.97561736 17.860386926767344 10.0
11.01873708 5.4402047554400585 10.0
8.90055432 6.750514770644245 10.0
6.76205136 8.212547171157011 10.0
4.59617364 9.314880839232204 10.0
4.62730572 11.729826625880937 10.0
2.493252756 12.92790418280473 10.0
6.73117488 12.954998168613304 10.0
0.367790508 14.173617570986732 10.0
0.36622879199999997 16.6479064667122 10.0
8.83662876 14.189437153114614 10.0
10.93921992 15.443394826012517 10.0
19.54603872 0.6110530033963292 10.0
19.568045879999996 3.02569184292915 10.0
21.72083688 4.262787100548949 10.0
23.831428319999997 5.503246970785498 10.0
23.81381748 15.403806518498463 10.0
21.692669759999998 16.63106372753127 10.0
19.54670328 17.866230727628018 10.0
23.83411212 7.995933017368638 10.0
0.36683711999999996 9.237868594893236 10.0
2.467378368 10.46477163417691 10.0
12.4254828 0.592128533134393 10.0
12.438390599999998 2.9910225597085938 10.0
12.396983399999998 17.868926352940854 10.0
12.4079742 5.382278325359854 10.0
10.26108756 6.760451199717106 10.0
8.15778072 8.08107148984046 10.0
6.06306204 9.390555108963339 10.0
6.03601956 11.736063948685091 10.0
1.79230554 11.708379679961299 10.0
8.137588319999999 12.965328119629644 10.0
25.22820564 12.940988787425427 10.0
25.20936792 15.414431610972414 10.0
10.23200028 14.20482386110467 10.0
12.33208656 15.469583711351087 10.0
18.84229524 1.8185731193539143 10.0
18.836339759999998 19.078061876476422 10.0
18.889913519999997 4.218692966782053 10.0
21.01995612 5.462812591092964 10.0
23.127684839999997 6.7420540488594325 10.0
23.11679628 14.178457890891533 10.0
20.99720772 15.429956051642684 10.0
18.85392504 16.65434055048809 10.0
23.145704639999998 9.240387135331506 10.0
25.23290868 10.471776324770849 10.0
13.13868348 1.7901588674249664 10.0
13.12089372 19.0707423683277 10.0
13.13607636 4.1775895997856045 10.0
13.079460959999999 16.675315270075558 10.0
13.083524999999998 6.541338181587638 10.0
10.894822199999998 8.007837056158897 10.0
8.84713392 9.290187337278855 10.0
6.73835724 10.558193743558979 10.0
0.37918515599999997 11.707986158017818 10.0
8.83905696 11.749128877208614 10.0
23.8288212 12.941657774729343 10.0
10.9283058 12.994291334669747 10.0
12.999432599999999 14.310976405358304 10.0
17.409376079999998 1.814539519433248 10.0
17.40592548 19.076350056022285 10.0
17.44390764 4.234079674772108 10.0
19.6132104 5.397291187503603 10.0
21.7456812 6.745143196115747 10.0
21.711302999999997 14.184773918084382 10.0
19.58964408 15.445972394742308 10.0
17.40761244 16.638914490303687 10.0
21.77850024 9.240879037760855 10.0
23.84009316 10.476006685663254 10.0
14.566056119999999 1.7889055000349838 10.0
14.55327612 19.06985694395487 10.0
14.58837 4.150613670560075 10.0
14.53057884 16.674370817411205 10.0
14.69753676 6.506176995937731 10.0
12.23759124 7.992351967682973 10.0
13.807358639999999 7.941095734544748 10.0
10.21576968 9.271514721060745 10.0
8.14096224 10.533519917702806 10.0
10.225278 11.75522846733255 10.0
23.1346116 11.716525584191327 10.0
12.31588152 13.021070502923536 10.0
14.352885719999998 14.353457099156932 10.0
16.69742784 0.6021594074736892 10.0
16.69658436 3.017978812836949 10.0
16.69147236 17.86205939502713 10.0
18.90082764 6.543738665442864 10.0
21.09349224 8.00295738405975 10.0
21.02511924 12.956906750039181 10.0
18.924036119999997 14.239768609685662 10.0
16.70172192 15.400068060035407 10.0
21.06417492 10.513804468334476 10.0
15.266911319999998 0.5956859715034489 10.0
15.274604879999998 2.9851787588479204 10.0
15.258067559999999 17.86920181830129 10.0
15.33819816 5.288049495993652 10.0
15.201784439999999 15.462874162214758 10.0
15.3955548 7.89969722609069 10.0
13.011496919999999 9.398130406375323 10.0
14.659426799999999 9.324561479041803 10.0
10.9199988 10.534798864019114 10.0
21.74557896 11.72079529727808 10.0
12.994243919999999 11.762902145230402 10.0
14.768746919999998 13.131099238320447 10.0
19.73485044 8.021177450042858 10.0
18.15416892 7.824928056829557 10.0
19.63273824 13.017686214209613 10.0
17.57584836 14.188374643867219 10.0
19.67708484 10.573796888617949 10.0
16.71948612 7.56238989223711 10.0
12.29098608 10.574446199824688 10.0
15.319207079999998 10.501447879309215 10.0
14.423661359999999 11.666646677855281 10.0
15.97571568 12.485624870527952 10.0
18.90693648 9.404131616013387 10.0
17.32714956 9.220061726950782 10.0
17.237152799999997 12.865334193791465 10.0
16.797520799999997 10.495977924294847 10.0
17.8679736 11.581547557577807 10.0
