N=240, ave_E=-6.818912916666666 
1
30.31973330638929 0 0
0 22.506565096544612 0
0 0 20
C
240
C
2.498567358499614 0.6259503378085891 10.773305713061951
3.939048791966177 0.6360422815978797 10.546182238012278
1.7578653697445155 1.8972989363256914 10.686860920113958
1.7413320191725414 21.82749701445167 10.8273565857168
4.739125914455178 1.9137399821287173 10.672219600207448
4.650046538001006 21.874153123896807 10.22242605157967
0.31820256907722494 1.9118674359126848 10.415874490844374
2.5062625068127757 3.1694420165907022 10.742985979755563
2.4688722116993365 20.5760644753885 10.182223427336385
0.310249703030959 21.838795310130134 10.36103054669459
1.7320875324874234 20.710901306881897 12.152640059254026
6.203963189686763 1.8919423738327141 10.516472559701992
3.989864664987685 3.1788497608010577 10.813447331805616
3.93104438237329 20.570415327549263 10.259395384343598
6.095418544449889 21.882840658024072 10.208211770170436
29.923424072341472 0.6020281097674718 10.212238133144727
29.931307203001136 3.155893064402582 10.290447183645309
1.769214045921097 4.434288468451412 10.593461500210367
1.688769729512585 19.400929192002614 10.936068386022608
29.96468922937147 20.578360145028345 10.002074186986754
6.8796081266863425 0.6321486458361775 10.379393202077331
6.957681439950294 3.140633613267125 10.557163227942155
4.808285226127052 4.420717009698197 10.854076994546176
4.652623715332049 19.320580754607953 10.582175482782436
6.749809348401691 20.56843474982077 10.124634235704132
28.564918101815397 0.6370303198056181 9.848706360966109
28.470047656299702 3.1330263942644927 9.917032520529801
0.32548840099075027 4.442908482883389 10.420205881316718
2.4325552351449433 18.145332938396585 11.249148610023394
0.3390989292719885 19.323078983333666 10.306979674039741
28.582200349800036 20.547931269017816 9.566128886770542
8.338684652589714 0.5721483939452993 10.309236877525326
8.443924446896192 3.096025601245773 10.707175751484236
6.228643452598164 4.40284679701154 10.626831508497283
4.1112345574131615 5.652118705825442 11.052710901277774
3.935804580502394 18.107746974685355 11.11640064287107
6.055305537285537 19.310992957876824 10.372682597120185
8.17304794953691 20.545072935250555 10.010370934933775
27.804984306224053 1.8573407806532862 9.614628258960842
27.763597870260835 4.373678288646418 9.767569046484223
29.90911315822086 5.671046727071635 10.22925866753604
1.7062581516837103 16.918252502767874 11.204675600807377
30.03102880584585 18.02361743435447 10.216813545615505
27.748619922007478 19.36422098433015 9.672644489090374
9.127149317222369 1.7788311296270096 10.691436332584736
8.941774467787104 21.819169585365948 9.9754757891566
9.214166951811706 4.40277927731625 10.886897953336593
6.9726290684703445 5.6684584720855336 10.66880329222926
4.76808125976278 6.917257743032407 10.879272265885287
4.650137497200926 16.899549547172647 11.274160864863667
6.794773512895065 18.081256747566723 10.58729994474972
8.848025852403747 19.251890717933296 9.837176321539733
26.3901139514814 1.8439606277033904 9.196801592128931
26.424557168517456 4.374961162856921 9.250547437285732
28.484631448020075 5.639154924329832 9.945095050350602
0.2809223345956879 6.895291335498179 10.331259862884696
2.4385069987929873 15.694052907471523 11.425637520396393
0.3006134853915224 16.867837796951616 10.749452562714268
26.290028511837008 19.383419084357502 9.868472142839888
10.494417690673993 1.716456435118446 10.954065008407685
10.349034569469856 21.711970815811103 9.571558376235874
10.720511941939737 4.222974328759955 11.125429456813418
8.468392471674449 5.695826455242932 10.713459317944107
6.202386563554831 6.931706957824389 10.684786733127204
3.967519021540877 8.155006290516878 10.696560794552017
3.873164011491393 15.70532869658489 11.419536970435349
6.080410276463227 16.86029809764427 11.098709047984041
8.173320827136667 18.026858379728374 10.220534881091748
10.311589698836464 19.21225665679828 9.645436036264119
25.656800881733066 0.6132678883766862 9.075827686401428
25.68866692143808 3.091569301356658 9.06027128400077
25.70791995208764 5.635733926435157 8.986515634971745
27.738796328416207 6.882395073697859 9.888420941212502
29.85738769320016 8.127503267968901 10.50177023429588
1.7506886888708932 6.916875131425766 10.36389780517628
1.6393667560631544 14.448292022812682 11.530444968727132
29.86642297372546 15.60328393043716 10.860543577504878
25.547710481296676 18.17279094781437 10.28099133120569
25.575968472738232 20.639060351093725 9.540262554935719
11.21072139003744 2.845009880724011 11.315095555102278
11.02001026754025 20.467177713451413 9.428805507147441
11.678160718422042 5.294061761704513 11.03111495441567
9.080396288463914 6.936770934971112 10.198511895732373
6.845104270183671 8.169838116915502 10.39409552748345
2.5027363218292424 8.160362853009856 10.52653846713772
4.683216326238195 9.438195592931272 10.739691682776598
6.869087179229026 15.672716683760001 11.33748457345931
8.938408977390093 16.808960622659054 10.462726714545191
11.018130444075254 17.942886385353162 9.610357873988114
24.201514322492994 0.6057281890693438 8.854743755813193
26.29939730942868 21.836949771792217 9.162882534345528
24.303843422402057 3.1096645796942797 8.648118128632628
24.346624566097375 5.610594093222317 8.527998299899668
26.341299180858112 6.881494811093998 9.43173377112874
28.381665633711577 8.10294860544857 10.313019218501172
0.23753267385291332 9.36865030678295 10.641228806405348
0.2162294228371781 14.358558347772759 11.203150463317119
28.421899919809157 15.60771772376118 10.628356645987541
26.26407482012674 16.928357950496224 10.554173958461245
24.103399665513518 18.256245291192354 10.416240523842042
24.113950932704142 20.73849435569026 9.681185259035836
12.404803446842969 20.472894380985938 9.127865377569137
13.108039341151363 5.0363840979141745 11.127198616302117
11.477262165533908 6.745172546304228 11.301735350687586
10.451454628578839 7.527973386927146 10.615240463571297
8.196576062582668 8.125005039243185 9.943752929359174
6.12749682228805 9.451609505728813 10.521108977672391
1.743627222983835 9.405718619496959 10.632688036459886
3.9332274031713506 10.668381934543305 10.968218284317306
6.236890420057502 14.399632829073953 11.643244137506834
8.304271755286964 15.683407302180859 11.125551467812635
10.345578119872927 16.7018293727995 9.988408955074014
12.457772020929232 17.967846166045234 9.461504454938638
23.53699672761686 1.8586124015812409 8.639577358687166
23.41817369278912 21.95477164007263 9.272326400646659
23.58244600784314 4.364563129782318 8.466748778290786
23.623620205673216 6.873504980484725 8.513845023990047
25.629179604690947 8.167790019491715 9.277267846115105
27.582012987488866 9.335723202046704 10.447719361641024
29.81797203990185 10.612925758145419 10.747805414224786
29.802114819382613 13.108813801091829 11.145073227687973
27.673214745274485 14.373525213561962 10.818083749776015
27.68209842713326 16.85120544534527 10.444242048163233
25.532611254110094 15.706251465753851 10.824672343733944
23.34470897898774 17.003822463264935 10.531235890607721
23.34510313552072 19.5690757398389 10.183687559327037
13.167617617098417 19.258755220287743 9.326865317298395
13.09536569262929 21.688901586587146 8.920263662394802
13.827890449311656 6.266930544567751 11.386471989646495
13.735870058726764 3.9589948267425834 10.427831568768024
12.809935723282942 7.284317313191954 11.666853265856076
10.397394544093546 9.17435113030448 10.415874490844374
8.966818567498182 9.391201885009687 9.988103927575963
6.833885968860308 10.704167373046811 10.541728836540717
2.4709521454041545 10.640563820083974 10.966266108329776
4.647924156669559 11.931652926847256 11.184360769437102
6.869147818695638 13.072690764111876 11.505432713886847
8.99177170800934 14.420271349267486 11.124148341321593
11.073100120559738 15.404573467199766 9.934968137415268
13.23259280557401 16.70750102720383 9.479745099322159
22.09477797343184 1.8800611581182478 8.421055659082565
21.97907787113466 21.977593297080524 9.213639110021415
22.151930670714385 4.3950595254881355 8.444725792931415
22.150081166982694 6.887616596800258 8.784221398263522
24.38131034099988 8.125995328107432 8.526107129411745
26.161503162351224 9.362798599857848 10.123719153209976
28.354923628935342 10.616864407037314 10.535323259081618
0.2106066282955082 11.8532175474858 11.051856824283224
28.38575879770794 13.125783751174625 10.916729642646096
26.230177358290195 14.407780205638904 10.81832777177446
24.091211132724347 15.74944156417412 10.742314919259844
21.909403123996576 16.979875478002214 10.416911584337754
21.895637965075476 19.547289384825444 9.9929843675448
14.645219500051994 19.33217163563267 9.390555058891696
14.438651157035562 21.877641641486772 9.426792325660294
15.093921233253248 6.488530184508329 10.664898940254197
15.140401384411943 4.008959401256913 10.036359277767826
13.129748270198737 8.644794160147883 11.721697210005864
11.269875189718205 10.420539639700156 10.46223867054831
8.23014000735284 10.670587577922765 10.233346036009934
6.116672677497669 11.92766926482517 11.066620155188954
1.6920685164963203 11.874666304022806 11.121830132336399
3.977524533531985 13.012890820650357 11.85151691317688
10.207320135995793 14.16945818783159 10.381223367065644
12.536512368325923 15.375832583571478 9.539042444943508
14.707890388796299 16.758118292105962 9.425450204668866
21.305161158933544 0.6506715489106337 8.700338836299167
21.41585850523517 3.1438295455108345 8.315638155755721
21.196313316363607 20.757827495108195 9.577902948195359
21.43441418201868 5.667108078179741 8.65934314056095
21.55726974137617 8.072384690047462 9.387931822408444
23.537148326283393 9.25902082819768 8.467846877283776
25.380163635045573 10.65364013440507 10.401172165438261
27.633799091976183 11.877794716571225 10.600050094168296
25.47506440029457 13.162379426021607 10.682529529641613
23.334248670997034 14.475322407493632 10.889887222817503
21.196434595296832 15.7619552143678 10.645011147381197
21.215081231280262 18.219176978478348 10.065458901082003
15.42971227962151 18.089494150392056 9.370972293516743
15.310980203993688 20.656592965303936 9.513542146106346
14.783477483929127 0.5612259579039461 10.10627158032139
15.802554040090179 5.278239646441643 10.18832397729743
15.651106972224765 7.802238389193638 10.3301007583921
15.790001670501333 2.8945468305015063 9.310149810405136
13.564957722078649 9.374637053098631 10.556126134448782
12.710426358571373 10.402736946708789 10.034163079781848
10.564911070611346 11.690270016186815 10.797646907406513
10.527466199977956 12.830857722149505 9.9188016800185
13.339803382545401 14.090617690298396 9.322228899328
15.515911281411572 15.489918362045863 9.374449606994538
19.8803762513997 0.6370010612709925 8.526290145910579
19.965392783590815 3.1984979921303407 8.266528728569316
19.753215289912703 20.71992643948561 9.396350581354689
19.96712100838928 5.665487605492789 8.77141024334533
20.06408351550311 8.073600044562676 9.65300071821581
22.485902533084264 9.222042541744058 9.455708932475645
23.95625799977761 10.682065926122004 10.91172719167804
26.156803603688733 11.906985731501445 10.459005379068955
24.108523700442298 13.171337038930032 10.942656979980537
21.90215670773635 14.513335995941697 10.872195627930473
19.751941861113835 15.718945168468302 10.37597689409915
19.78371694161893 18.189355779725425 9.830221694584143
16.85822651435204 18.155933530557057 9.557710127824304
16.763507667502882 20.727106033751408 9.474742648354102
15.863466384302713 1.4083820707639239 9.729501614727305
17.213209951903245 5.431509354749111 9.9403976268806
17.16021105808368 7.886525475480197 10.120912900227896
14.755643968753862 8.907535801084943 9.855721993421305
16.851525853291328 3.123933741965489 8.36907897341447
13.391528847566102 11.567901821756903 9.374937650991424
11.291978275298563 12.742834546056919 8.757195961936095
14.839205153746272 14.198221578024976 9.250730453784563
12.689414783390045 12.774208697801502 8.969007056583546
16.95637149106482 15.60458931121276 9.33046464177541
19.197909374406184 1.90890332128947 8.275374526012833
19.086575313705122 21.927741255391677 9.050388393063873
19.256335500487594 4.428414254961214 8.463454481311821
18.9925235009887 19.469011551419662 9.632685886845536
19.270858652741357 6.820997164114486 9.357673094601665
19.327677832957527 9.265232640164328 10.263726774815936
23.047272395252058 9.603416287305008 10.734567220809318
23.353653300313123 11.953529308121098 11.202845435819064
21.213171088081957 13.227580945106297 11.043438065336982
19.073477188916762 14.3934660302375 10.391411285500588
19.06174345212719 16.944067532933612 9.89470450767238
17.666762842433524 16.89835669922253 9.534589043471946
17.53511456041718 19.432370863442486 9.587968855631082
17.59414708116472 22.04398766411533 9.267323949678602
17.008491112618504 0.8594491987157106 8.989077865955384
17.897010897162243 6.7012847443659656 9.784406564376702
17.86993537531964 9.091864569225645 10.427221513771919
17.738984447169344 1.9180049762145126 8.274215421520235
14.859276817195102 11.650455902531029 9.306550485928117
15.571972468295089 12.951335365111309 9.318080525354489
19.917123768167045 10.625641967424967 10.365483948166151
21.971376658874835 12.07447958894993 11.41111821148911
19.764251672836227 13.148267809706072 10.71126311995813
16.990359912101287 12.948341991953466 9.637200293816708
19.125505851270525 11.828820430921146 10.372560586120962
17.727038472246626 11.803680597708304 10.02781850782236
