N=248, ave_E=-6.3750072580645165 
1
28.23364498459069 0 0
0 20.958046112645935 0
0 0 20
C
248
C
1.955713531073114 0.24294986214701422 12.66310873889866
3.424487033825989 0.14932985100090257 12.782689871076858
1.2695089065451297 1.3567736060220277 13.301348178339058
1.2347928166720767 20.573340218202205 11.450766248725312
4.208930626077858 1.3344239456475018 13.241870057013372
4.032752681374011 20.037820223931877 12.03015245636685
28.06218205859927 1.1954364712422678 13.263343533480523
1.9333920113482967 2.658695813758038 12.994868269502302
2.0024345667936148 19.72412018971779 10.519283196789022
28.011022693887192 -0.31165662471810135 11.308689093581528
5.600905791108147 1.6211719325607234 12.663904052841886
3.44515406195471 2.6463934406899146 13.180630883384822
5.490455771928429 19.869401365370656 11.855921894661133
3.4155652020108587 19.49597089973553 10.792643960704218
27.356764438659273 0.7665677820299714 12.062817136177994
1.3592749574091372 3.388245398939243 11.81377025567005
1.297519505734342 18.893007913074708 9.562009249836628
27.28725320470721 19.77106621301012 10.346359222275755
6.883052077148379 1.1822769140881373 13.260730359095632
5.48240918310782 2.9697760922080416 11.943747277249017
4.361618178154524 3.8496996582474807 12.534211071956939
5.7812623152697125 19.395833355409305 10.451227046504236
6.346641056086141 19.656698155373412 12.971804165148697
4.478872505775529 19.05235193766915 9.79799025842011
26.50320488348513 1.7573216875223052 11.421055592131871
2.3626619964230104 3.970920996963025 10.944208075027937
28.17765766658625 3.8283014931664696 11.74548687283006
-0.14251835782611658 18.73884052587008 9.586436749521486
25.78598559994157 19.594222219911615 10.266600595397755
8.304785503992429 1.2581219871651919 12.460303683375546
7.319770097770029 20.624917969685427 13.396331386415994
6.528211626982044 3.493664370885852 11.011298486953091
3.436740435749302 4.653294020344664 11.56318955541446
5.129403919865483 4.88890437474303 13.286634870389342
6.921478067972408 18.644424528132614 10.205702270602018
4.389541253044284 17.790509897318966 9.05221301222754
25.03093323211866 1.748930085858802 11.628973380147169
27.149134213442593 3.002931721158247 10.971589597930496
27.854467132447635 5.3010862676404376 12.107297908859955
27.491410691590787 17.38279206824355 9.409479397153277
25.201379746890634 18.340386153176457 9.754247991542577
8.759996562078983 2.2270229379758697 11.469285701974766
8.720017720780804 20.617331156992652 12.657939198267684
7.8352317542537 2.883282235901152 10.527918033886927
6.502801346495912 4.888631920143565 10.618129358304493
3.270754836884893 6.058761550704814 11.85864868532363
5.557680080636739 6.13873745467067 12.669868907416095
7.062985096635176 17.27821141814145 10.648521712563557
4.7203266376837485 16.508045139593936 9.57944934844884
24.00469670421876 1.4867407373803787 10.629547794203695
26.406815219507735 5.879800794948929 12.108434071635994
0.5877256708217321 6.500787701266629 12.224663523624873
0.1050342413987746 16.215931892875876 9.265016300179806
26.100141367685108 17.187169665828115 9.783617799303205
23.75155384328692 18.131748804125067 9.685737376147372
10.23478100784908 2.5473247567154376 11.479227126265116
8.93247589928985 19.566033647890105 11.647436025257818
8.507390140401851 3.908801348285143 9.509916186555202
7.568141472699473 5.1269039463982375 9.557691831287677
6.624516590024483 5.954998264401103 11.672545222608296
2.0459821408178476 6.720260360158258 12.497683438707252
4.428701318637911 6.8657511162722455 12.12740798999586
6.107473849421674 16.178710402979817 10.194511067258027
8.324238485386811 17.023990318795054 11.300281489038834
3.7278293155404323 15.475106878886068 9.866103216843701
22.799458867116552 0.6528766692827012 10.945344237803976
23.317405084358867 2.6148096651981576 9.856445833247363
26.18515287273371 7.538860683272094 11.710436251189229
25.323010289484248 5.143565593057791 12.736561662369638
27.869233328774577 7.708893311383991 12.273348098578182
27.83154141272015 14.916512075845716 9.583539534442586
1.5332930282716621 16.367982517423123 8.968080158661785
25.640638795560896 15.88263608554647 10.233935915586606
22.973688690316457 17.442962618632958 8.492823269444305
23.01858018584196 18.966759277345105 10.589100399376672
11.05553306755113 1.9215007333549399 12.482686090063531
10.891269721030781 3.29047611382375 10.357891274452559
9.159559105900911 18.156856543368015 11.936987108731579
10.152310530849089 4.423363296442826 9.59279926106731
8.426218411071153 6.188827184879894 10.168265707131507
7.787601595164696 6.819245211948283 11.364758726579097
2.533963990638018 8.104120144976267 12.794619580225273
4.008923485007017 8.20497026287032 12.545345467162129
5.956593250624021 14.529605586560159 10.745777246192574
9.273735966218595 16.01307896455158 10.813378931366948
4.430988243881663 14.359929245232179 10.523600615337976
2.45339646130999 15.300358690398827 9.199459708002305
21.468524842542944 1.4843892446065399 10.774408548148777
22.52570544534596 20.273032375454104 10.225130654072302
21.8630900312026 2.9656263990777374 10.338406082843477
26.397921621337588 9.223761842452152 11.357430476673638
24.58724150118582 7.475127265043539 11.286761152003958
23.907629432761738 5.428092027083072 12.483822252839566
0.18991333065239943 9.057145375856615 12.58982623984409
0.44887542815201353 13.7527327332566 9.120894052039148
26.618285220442317 14.813712859663188 10.401008651803274
24.271109378293353 15.486508055971347 10.095835330158963
22.182977228878013 16.101123716270802 8.150213384329483
12.066156389774555 0.915753441673619 12.158084384948939
12.154527698576322 2.8422673396587035 9.694429021384074
10.539337336297859 17.64210597279532 11.981581497691142
11.162849152137559 4.485985938227412 8.362505399032532
9.801789828365395 5.981594024918051 10.03845910996895
8.382315093120114 7.9542072411325115 12.064578188480855
1.635803746481714 9.26184261223883 12.626637913787778
4.590169534304785 9.389456155018731 11.934203509930278
6.770653936464724 13.228383377564311 10.594610788840466
9.03894497452674 15.372894487994696 9.563543069584284
10.692984832304 16.44416501504259 11.088557555723803
3.837432325370613 13.046614243629334 10.393282744926204
1.907882913104719 13.983606569233508 9.131971639105537
20.47738273535889 0.6729439984355596 9.808726996653686
21.32063701011366 20.40712195448281 9.452369541948784
20.753931287982955 3.59281688704478 9.347785758414311
22.082776022827698 4.202130161677736 11.26886658828133
25.705886749120285 9.80165900596225 10.148666899244816
27.529808448769828 9.96902996221784 12.01543914841713
23.521082599277705 6.758383046037159 11.970787951318762
24.057493620339944 8.02856638874018 10.022211982271582
23.01753554097753 4.310986253186818 12.328338376938511
0.22801689325070332 12.214495980772838 9.225080178602003
26.190686667150693 13.528083436975148 10.880980616541315
23.819116955735044 14.469099707432951 9.211957498538744
22.87207580201692 14.789611106633645 8.171573244519031
20.76251431605827 16.106195563430063 7.737615872210604
12.391718550091868 0.5372741827299574 10.81264042556252
12.67690659808122 1.4694168164636656 9.723344364034293
12.458039382160672 3.7091130849238523 8.548608861747866
11.675741546927634 5.8194416221445096 7.787379801801148
10.622880691807262 7.10968181497733 9.666195376399486
9.408890424759832 8.82390328066898 11.462411917179722
2.1977379826100223 10.50123858520237 12.009815142675738
6.015770970511723 9.595012671291562 11.984194672076033
3.70826339956611 10.533262479662495 11.369246569544451
5.960687129146787 11.891427699946403 10.899897726762383
7.940289147241363 12.678381373430144 11.652264717055989
7.514751650033611 12.944590475152975 9.36141971172679
9.664150809065516 14.204776829860261 9.141629022701874
11.57602031284206 16.559287562339357 9.973697831734679
4.532685833116158 11.845257124360245 10.941708516920645
2.6427905752311225 12.83827030722352 9.639438743023746
19.172282495946185 21.017147802683596 10.47764283104716
20.106759677646167 1.3986876024427082 8.55758454767858
20.452198324032633 19.25107613090926 9.360965246616374
19.73616485357843 2.7434711102836906 8.782658393612078
20.60717280135305 5.0403891320452345 9.510029802832804
21.653878721866782 5.4213435362348 10.553538504486625
25.966709161487934 11.288045552363327 9.69022521911273
24.78916853011561 9.035076553300001 9.356931868761432
28.03818346036237 11.08603094588353 11.336127424622891
22.048528611461393 6.879352888199352 10.938015987898517
22.62748773551541 7.88068641536935 9.767484287883438
1.8176820641079487 11.620607828078791 9.770949584350362
27.40478986877806 11.578607903669049 10.087711766310278
25.353107355037825 12.620201837421439 10.102709114954006
24.48159120165348 13.215494179205036 9.10072716276444
22.3279287622289 13.668586178114326 7.370862528104929
20.208654902395555 14.935667729992675 7.1850431060836115
19.85276980736479 17.12938833269555 8.188502069882023
12.657199513881976 20.08292193916629 10.506501365558577
13.61457418166446 0.9935329424068706 8.653135837143534
13.690974424992763 4.564892981841524 8.09743862338243
13.11565744114176 5.7932440645037016 7.338709121543001
11.269882900274142 7.065271715264634 8.366936433859088
10.526321625959962 8.402793260127586 10.410722843538412
9.162975376944047 10.326699977176256 11.232225338754045
1.2863643926009303 11.283434782218544 11.220579670299635
6.67333256220284 10.77995964045445 11.499166782984613
2.9113123025860688 10.518214602553616 10.02414345899085
8.058390484211905 11.153851183104054 11.817576400969788
8.950347796565095 12.935431809001747 9.281717892987594
11.12250327345458 14.196833730383569 8.842704596325785
12.047719819599617 15.315658064061058 9.241327306299375
12.05161606260749 17.86792891965908 9.619783126998257
19.2376716177305 19.56077317831583 10.090040900001156
17.80199077026406 0.4715434627068659 10.23785567716395
20.339150809514333 18.453329063677504 8.211793406790843
18.287920034093847 2.888144502599286 9.06851694806371
19.360233870608603 5.755624371731502 9.539626843148643
24.938976250403847 11.101812354606354 8.3131959345524
24.21023763970658 9.833389487776797 8.305356411397728
20.518265053296577 7.224573823766857 11.215580554085061
21.887963872434025 8.919933047957125 8.956604914623782
24.25846070534026 12.325112548155383 7.978425572592254
22.953106363122693 12.33886102640528 7.415172876370487
20.98152270020374 13.780774598955322 6.869417086899734
18.894350494717873 14.533755279690464 7.464255108295411
18.495776128470407 16.71236513114612 8.636377436196941
11.562242294089579 19.108205130559355 10.318636850540383
14.025232547965333 19.669713102009364 9.843152728767695
14.461639998492151 20.748046490597222 8.813391596703955
14.991952552237718 4.668341897453544 8.74027952206579
13.847247649982473 7.062442379039427 6.932417312831145
11.873235893594845 8.308293430205666 7.783062383252197
10.925630066977028 9.631500629573678 9.739534683592858
10.012808090980226 10.718426817067721 10.087654958171473
9.70280266904942 11.659505961663863 9.031648465981217
11.631753528041642 13.034353786653435 8.058354623886657
13.530099115870566 15.165242167110598 8.880368392351507
13.52114905041045 18.106138071775415 9.525936081697363
17.941521443777905 19.02533701622995 9.70669957936531
17.505142226896073 1.6207066639370227 9.300805427625061
16.750400429167996 20.01424242205515 9.96557426788599
17.512285339077174 4.06101963720129 8.638081680361005
18.20237208979054 5.459193767514238 8.665349586985961
19.508516974067675 7.048232823775053 10.150825608519291
22.69589785731307 9.828673927401452 8.096927350133214
20.414252305173346 9.190208010625804 9.156455946929196
22.097937490184425 11.085004001624013 7.457267707222762
20.113959257117237 12.547770830056136 6.712456199389823
18.036358257281147 15.320541288805305 8.300754952154765
18.674608035802805 13.087230936995642 7.112499112833465
17.736178143804977 17.520151102465835 9.55320398832232
15.503179161973701 19.326210726223096 10.537348184928057
15.906299145063688 20.852543308514875 8.718692429321035
15.42500019901137 5.980734745027432 9.174748167623438
16.059749005554938 3.808496139590019 8.247184877264484
15.321269787337984 7.121229698385399 6.9905320388255845
13.096995001806944 8.290311426641015 6.978318288983157
11.471555826399074 9.566027693517771 8.387330555689001
10.796263505657635 11.847017600233706 8.044209397324963
13.057524366118486 13.001009535288215 7.658084477887812
13.893494360467233 14.19335469472887 7.806864993410233
14.557380288634898 15.808989511506631 9.731638352299381
14.346446726955019 17.156361338042526 10.213769026311901
16.434720044595284 1.2994994576053887 8.42652817146238
17.528039712978575 6.702257398547495 8.109027483698036
19.29888216005709 8.177620012693318 9.243372399296245
20.672194885752567 11.228860030141213 7.040068735860924
16.829144065030018 14.761254870243235 8.937574188125115
17.44559746962357 12.56927378536771 6.5905459335207475
16.633823709026622 16.884598354099843 10.279950508016228
15.5304810966738 17.79654581459941 10.817185076666679
16.0772256318004 6.802415900919829 8.180435314172144
15.712813975984288 2.4587141377511705 7.848732591707304
13.456578704330692 9.417812391409141 6.256116420393408
13.694531864260822 11.765637507178301 7.234238954286138
15.212203216762509 14.091645296944199 7.100853444379055
16.047919108306395 15.63709161729071 9.717493125737686
18.34867883810069 7.955297059530369 8.11459468130063
16.46981446531113 13.3740417980472 8.696537255188257
17.423688161115532 11.674679587049418 5.452338064484003
16.143207660129388 12.838186475039072 7.367908504887229
12.969520094701517 10.740537555716562 6.539304992321348
15.16409308570877 11.660574822015608 7.348707353972152
18.162732052232176 8.964636560315398 7.059553927470006
16.7463630179352 10.39485554313458 5.418537221896816
16.883070326950588 9.325010163222345 6.447218999323319
