N=95, ave_E=-6.35152 
1
16.167950778238065 0 0
0 14.001856101090766 0
0 0 20
C
95
C
3.0954188482967906 1.7571069239819812 9.201735895026566
1.9958203479180414 2.0396643801019927 10.02726918458724
4.205009142256491 0.927799390084137 9.65193362303469
0.6974061736143768 1.4027059442072731 9.705390333530342
2.09062921128163 3.101789176506334 10.947817649672142
4.031316847045879 13.569338766128073 9.516327782352423
5.039517921675248 1.4739613899057238 10.687365625691719
0.5985003515235833 13.901518800270349 9.489001668361038
15.694908874368377 2.181461176837739 9.402525903459122
3.4170478931282804 3.474924639744302 11.476122520172318
1.0276511194155897 4.032422542265333 11.052738541518238
4.418814123347912 12.59819803066862 10.579484404829884
3.009599365565903 12.950008667064624 8.599195081516445
6.425661013696711 1.02604061304622 10.819498772720912
4.57793909490733 2.513977255526443 11.612980807745856
1.5125085617140155 13.24672199970284 8.446111913760522
15.156192754437484 13.069038445779997 9.534032827042676
14.37917720798614 1.6213729309380074 9.613563204638446
15.555896833577085 3.068898816524872 8.300258780331486
3.873857174416619 4.895804993170791 11.957859138078835
1.088101470580344 5.277929648025658 10.382167090050395
3.6751045554997384 11.34879840891219 10.23995743848688
5.813995099854408 12.485581102047545 11.061164093332252
3.0499222348068287 11.464803786709727 8.92352189695174
7.451177963609573 2.045433144815642 10.995182913923877
6.796149605780037 13.57471547887089 10.776232425567876
5.631410431715765 3.228449966796801 12.356251108311621
0.8541754747454066 11.904924129535312 8.243670952607651
15.639452803199019 11.894030685488664 8.576992613898444
14.172049590566132 0.1905918650624374 9.282917225342647
14.038777172301117 12.187201548533302 10.441487529173369
12.912065018467262 2.613460443124693 9.221888904095213
15.93978865685557 4.6269273504615445 8.300258780331486
13.796500429889218 3.382666409894215 8.053526742750908
3.2094514051357033 6.22696145270149 11.523943219657248
5.2507845344944855 4.749317574641179 12.666971796155366
0.24423953163637552 5.6547616012743145 9.276882708502882
1.8326533886640628 6.335881891311875 10.93859508620005
4.115341687240383 10.08297460994918 10.769287038261734
6.365726420161782 11.107140374463464 11.197737733885049
1.799250402356223 10.816657867790234 8.56378499213594
8.46261262839459 2.291879814050941 9.895420684578792
7.097423200581725 3.0567872109974283 11.989454957381383
8.05464672640731 13.223030859179795 10.274399727996862
14.757507256196911 10.777144629872955 8.263767032272153
12.80168641850423 -0.01876318726826668 8.813705076348846
12.790449692713356 11.586409906947699 9.829382575766267
12.074047793729628 1.2460895829741323 8.875985844487555
12.151653957465168 3.5560793977062235 10.101448198193026
14.483783849521341 4.8658410211144565 8.039294391713728
6.652465027213834 5.391876752976335 12.48679023202465
0.03792031175527956 7.208421556107448 9.034192658616863
1.3419237466429812 7.528826029268707 10.14482840415436
5.536811751712294 9.965625053965939 11.070728233229243
3.5784363777966526 8.775887341056256 10.210411077733692
7.847874803904422 10.906423767254328 11.037879967035423
1.537020791888902 9.397065685125046 8.723813547198006
9.95504382883219 2.1462745124556983 9.986052295983562
7.654845639563038 4.4105846718435915 12.055208419173162
8.686554914623965 12.032733072026069 10.66402456999074
8.544050596464576 13.890163294972364 9.139910562121045
15.28358003861922 9.433806555534307 7.755785959053071
13.358979513879317 10.602023415616614 8.757174178029164
12.101484806200297 12.720126193596919 9.030036812114005
11.534038237736477 10.895740351049195 10.554492396408591
10.641276331663725 1.17558603694831 9.113267600979444
10.800934845598826 3.1785193479403113 10.66174739382479
12.338959667231057 5.044854751366902 10.332467720228557
13.903047225517808 6.055900776714464 8.576138672836212
6.957376410940626 6.79139027399256 12.314977290303798
14.686303600969552 7.266571264495277 8.559629145633082
0.3531322969228867 8.703063687474483 8.22955246037877
2.256302202906235 8.576626926881634 9.711140203349363
6.013750131719539 8.759281139720361 10.416723238368675
4.8371113458824855 7.962729547985408 9.836100245455818
8.478909922779053 9.60532929277267 10.61159258876976
8.837321055631037 4.875180259133884 11.2647436425681
10.067702109854952 11.656797237567883 10.053513639899805
9.928043351032532 13.915590665651946 8.82326921624583
14.145226960225036 8.522831795741242 7.967563342486333
12.999064761604961 9.157983992198922 8.570104155996447
10.642990134446219 12.688131952405925 9.099376826367156
11.078069689888606 9.178986776350557 10.315275040175646
10.230141511323911 4.301006145996455 11.477602684680182
12.625859953790892 6.014679312352852 9.263390439719636
11.248981097565359 5.5216319534651435 11.242996610183287
7.979821450205623 7.309668977574435 11.369835322626649
7.4290925428465 8.431959749645163 10.262444553125626
9.040487525110375 8.530728842582258 11.65658873132378
9.78088266304901 10.01484157816127 9.81093744882208
8.936608441360196 6.289745775458781 10.887415551870344
11.958899648287014 8.468742625622728 9.279672249306167
10.506031423403764 8.150634456862047 11.299926014332012
11.69439197355504 7.089265760687165 8.968837702654127
10.333875083517086 6.717404466354396 10.87511880057422
