N=251, ave_E=-6.459522310756972 
1
28.51140140770904 0 0
0 21.164226785632742 0
0 0 20
C
251
C
2.6223304421937574 1.3047788141796157 9.053673888085378
4.070344687767358 1.0721797289601547 8.80246377387138
2.097472607099664 2.625401168530956 8.717790074720916
1.6093403081588407 -0.022320640137199713 8.621700341606406
4.9127425537595295 2.2586039541091547 8.891726833409397
4.227699112136504 -0.12866643524737928 7.947695401688552
2.8723241120168317 3.893096024536786 8.712225475251003
0.7670336786511741 2.4585212403262418 8.133220295355617
0.3813542495288123 0.9806444481122931 8.004660837499127
2.9243289081844934 20.155687886616985 7.938229845889211
0.6875781052081704 20.321192140080633 9.477214484852212
6.306579434378201 2.317377011892857 8.459409084901356
4.35668469210498 3.684226270389377 8.846464266587098
5.50674909068774 20.53952230360122 7.484514204574182
2.2531448587857557 5.098927845648212 9.22319338740083
28.199600721914337 3.2862964783659097 8.662086713016922
27.291940258099917 0.8605078311863275 8.738327462455246
3.2413186690354023 18.608223116731875 7.847131042196171
0.4153170308856753 18.906956177811082 9.237420404602261
27.88654553445769 20.912033859255143 9.858762434072876
7.215636956861596 1.2086128005110577 8.277383578529808
6.648260068848186 3.7536660984730372 8.111994503563157
5.436753600231814 4.666817827365948 8.34020044883452
5.66641293857091 19.13889493915483 7.323829224004779
6.814310470646684 0.10256226628771199 7.379762053728154
0.8824364269890171 5.585789718624907 8.737581691392265
2.900065705586533 5.825495751198983 10.298078957171942
27.059116154204567 2.4312828804531326 8.945020780909921
28.16245036588009 4.752046168631691 8.593361041213232
25.82334648299023 0.1729631619097086 8.619749863441694
2.485378776671968 17.540064590860993 8.503065375588012
4.509192178234815 18.24474868591542 7.29107266423858
27.467427933764366 18.484412390035924 9.46252853161202
1.3708424353833546 17.842840019256254 9.390877142561258
26.93098591627832 19.816636973511148 10.092418244804467
8.55285019428456 1.2331188587061417 8.812560366724007
7.91091599158999 4.489990712571986 8.574028360580638
5.981264344316241 5.951613378614569 9.034857510496387
7.091925986153546 18.542889148644626 6.925415375359833
7.778480532051181 20.179772776699036 6.929947368742546
4.292049345113703 5.571630850905319 10.766251083707782
25.754149311773723 2.988685121306342 8.797817046478976
26.757322970303967 5.317004038447371 8.46916147572492
24.716419834737337 0.8582136290027649 8.034376946008571
25.619689542734967 20.086480865027966 9.374470179175734
2.930515882289966 16.148156887850284 8.345592947289902
4.965060975342675 16.903613962963444 7.092582827476665
26.299515397900382 18.003053216023492 8.414892289142038
27.79345580886152 17.18363784756415 10.204054436231836
0.675412290227501 16.75021564722118 10.106645262005902
9.033809024631202 2.2460747318520604 9.67444224750755
9.513028659491974 0.17125224581635803 8.531117840956966
8.933990608302812 3.797391391012155 9.332993834673175
7.501349710368249 5.899866844123697 8.958616761058067
5.467118242731024 6.30488665212035 10.312305974373377
6.4367624932058005 16.90886269120628 6.9192771058414735
8.363448954733148 18.10599601510881 7.7727834039177175
9.196495081063588 20.329276874712743 7.418370047988493
25.6630838956775 4.349481410942171 8.356205843186128
24.464550114701634 2.2747522591465925 8.550622622604092
26.400274690475225 6.7538222306971925 8.684459844906272
23.780960754550403 0.11730717144699446 7.263249666889003
25.135508924029253 18.87550613680763 8.60971063759391
2.0818654659690843 15.05430499066164 8.858970273643195
4.239844969136189 15.785888817960608 7.641470329828692
25.837374092482825 16.620563593932392 8.939513548444854
26.758663006170128 16.314909830694283 10.009121353770276
0.9902351845714241 15.3466252910248 9.795945563768168
10.633327155005087 2.600702515872123 9.820900210875518
10.29104778110554 20.69833866140061 9.631531727883871
10.457126694305444 4.1479133150358045 9.468609434125536
8.332656641212822 6.706139227749161 9.844764884890825
6.228657774330932 7.232324234093563 11.160534508003927
7.388045401174014 15.898990445903028 7.544921660675424
8.439403328083284 16.734109670637313 8.096505412255148
9.481010355711119 19.053349134487306 8.062544145387214
24.182543843377985 4.71706170175504 8.330161222986732
23.127707525496973 3.3530484496477952 8.351960684827642
27.233349328207076 7.754763172296907 9.466544221951136
24.948046459773565 7.056364852597812 8.954658437723797
22.37691679222777 -0.0821038664653801 7.612155790353164
23.912483849244165 18.123181367258745 8.927237009408135
2.5991307148683047 13.67475719609374 8.715954330565896
4.583207776289228 14.392414962167761 7.356069480727381
24.332770417395203 16.548922686263023 9.227036976725412
26.524356309401576 15.254391590693013 10.887467564944181
0.2888290496805149 14.169873117516834 10.418320199325983
11.485247829067434 2.2182861020825246 10.915061094274382
10.100477574096413 19.212673433729545 9.445892100207121
11.746868448384571 20.95324060880677 10.013997549182054
10.968621235559745 5.108409419248175 10.411722993768866
7.776399199748418 7.1728104283723635 11.072189320543423
9.748732414929506 7.042332970238938 9.546284358684968
5.563059108467965 8.55373389768133 11.264024584743378
7.2217954195656615 14.446870517687195 7.725512991925864
9.489278662119354 16.273893559183726 8.923622888102933
23.96357628056678 5.9215178481254 9.053788622095066
21.902772186817568 3.849010940142313 9.398449587200734
22.374863971326416 2.473569005570827 7.333753715842878
28.39678557405005 7.3332775958610315 10.192236833233867
26.29794727082296 8.837440357742736 10.02409414203468
24.878706731550018 8.19366690737736 9.891346892824544
21.67513715797842 1.197397876737351 7.640839292775404
21.939551894633514 19.80747286331297 8.409212955662436
22.64937174407984 18.50415861362692 8.244684385768451
3.6335785296026635 13.345378334628938 7.802958448465919
2.1918054297972103 12.743594710206258 9.663886718616162
5.960793158105506 13.792133997846861 7.239499726883388
23.976548968207286 15.505166513875976 10.3604368914379
27.473757464876876 14.15603171319903 10.998013783279504
25.135851060846147 14.7461961771164 10.941736751527063
0.8654978034126972 12.8731621065879 10.186270664730042
12.006379223997538 3.280793779401645 11.842341360580633
12.214113294654107 0.9421530688572629 10.849146405708066
11.303886804712997 18.518232824439366 10.034707037930911
12.388403491459432 19.52998868592654 10.241801925419502
11.567446199325857 4.638055643164273 11.683205289142027
10.86389885818923 6.5237247570837935 10.298136324176788
8.658827073317012 7.443839516589176 12.255383795460922
4.20423422877796 8.847091245156983 10.334105436214283
6.053740326694637 9.847439588406703 10.451191493101874
8.154859542034348 13.575306494428052 8.643270335427932
9.310284084081756 15.858058831299616 10.319821052008002
23.32674561872419 5.740838844056452 10.344488864091133
22.205705826774476 4.783750180356569 10.487791642192658
20.460351878200164 3.674003948851916 9.15383667854385
0.5152409393992732 8.168566134409598 11.150724750175524
26.78130105888785 10.07264812563262 10.984360436126519
23.836443941689804 8.254133103303912 10.86997062846661
20.339178422217397 1.2118890228174735 8.115551257863515
21.004349417059252 19.882648196855538 9.559019833760445
4.334987515633713 12.071207225226704 7.914824107912665
2.9074786699525372 11.441338671859489 9.886585431422453
5.747613409780065 12.305876171825801 7.43638328750966
22.638252297530833 15.286984499942887 10.877829908130309
26.627767162307336 12.919342449434152 10.99221971579021
25.22167037908335 13.298224437350548 11.047980444499046
0.1293043374362139 11.694822616071013 10.49364307668679
13.255805856486164 3.1148874056290703 12.40287436491609
13.40531964546819 0.7660751676915126 11.602145711296771
11.201987056081844 17.299533153442276 10.83308364435161
13.742495478515757 19.053010506858733 9.85583671682581
12.344153796474668 5.853644172823875 12.144436008091688
11.39506626641485 7.185699442484815 11.612701240188159
10.11085572420882 7.971230883860359 12.232092791494061
2.856642841242592 9.12358070388449 10.88121456141613
4.882891116485658 9.99370555972221 9.376248556325915
6.819613591308518 10.950392103113167 10.989982402601274
7.709568474848748 12.204393704388693 8.974220586375768
9.635114480319785 13.765742207045177 8.927237009408135
9.852827541469052 16.850788052906505 11.269589184213295
10.081888140378586 14.590490960654497 10.143302778101525
23.100621694159653 6.997507137906968 11.152101558291786
21.095414833155473 5.612795272003375 11.20275662356947
19.779071941562954 2.3256522245660394 8.876237742101384
19.358386213792205 4.553292914887813 9.751772970037912
1.96172412271728 8.024268436185155 11.235685284350204
-0.07006448804733235 9.502674334068743 11.411687255213081
25.743742650259907 10.32333839190844 12.093149905760722
27.19782412205307 11.621679048299866 10.510967912149827
22.967473449585647 9.40470512827805 11.001685271589547
21.06878518424067 18.8647970380541 10.677619061223059
19.48032947761298 20.044215904137058 9.437287049480446
4.059481843831021 11.174415443639088 9.074727578863303
2.2295830366624245 10.415910719868798 10.686797781998173
6.828224034533646 11.600387836153518 8.030017053640389
22.035378714764825 13.943119591735565 11.182907639893276
21.76292376291276 16.407249352159997 11.079532297163517
24.25188357160153 12.512629503294647 11.665995187688683
0.8356948355212189 10.588039376316347 10.996292773134169
14.464489696363174 3.3870593620923075 11.723649027557393
14.755819195947145 1.008689165025935 11.095881893544192
12.136961442444846 16.10129928974689 10.63212702638138
13.902986157039752 17.664044631371226 9.27866728108545
15.083529243727353 19.927622178775007 9.71821327220389
13.87550116608272 5.995634970328686 11.71429820576774
12.69196438224731 8.406663685747967 11.6715597871586
10.398592787215419 9.336916109883669 12.067908423629149
7.963462504384397 11.587139030185712 10.317927940848136
10.309238055203657 12.530957723691005 8.97066383207541
11.52636126989735 14.700227476538004 10.554681569841325
21.653040821887448 6.96749626432494 11.34244528036579
19.617526341186874 5.533302436196538 10.813636229709324
18.343351812276357 2.4319178072567014 9.254056836007162
18.06952831315672 3.867571967033313 9.71018189152566
24.465148854131197 11.0751128915609 11.924548278522778
23.185443113347585 10.446302549532966 11.908256049146942
21.602547129994395 9.23010025729658 10.50987793905778
22.11532468431204 17.805802622381396 10.741468537614963
19.669417091748905 18.504095120946563 11.111026782823139
18.530671719525007 19.316886086422002 10.414533977006244
22.819898435899347 12.838071818577323 11.781302867426103
20.51475163208607 13.698059009784723 11.098348674752508
20.421348281074415 16.14472828311101 11.441059161693463
15.31353071888334 2.2956201867572266 11.320645818524884
14.763830899742711 4.718141077321107 11.251518577687278
15.577688852925768 21.107591314754387 10.540225084620513
13.488145266557586 16.395376220933258 10.040787940444428
15.406905558493587 17.540487875396703 9.0887824950502
16.114473007228703 18.901009030084317 9.287616533841188
13.575190575055322 7.3042826051647145 10.920166757705541
15.165242920161845 6.633482437194085 12.367077353893137
13.683191763587724 8.736973773191338 12.86181040367197
11.732755304687755 9.617363279020088 11.672190824211889
9.351112410897596 10.343973513024432 11.917033200888152
9.261301496463313 11.326014800104575 10.842721301165483
10.438252146573541 11.85577656077575 10.218683022467179
12.207356092520481 13.486035785846255 11.068517832233375
21.001469765517072 7.919928798131986 10.543208168872425
18.84210175710141 6.865061406682479 10.978451634627532
17.50517363369253 1.6246951498485618 10.33169602201081
17.102336043203007 3.944334617584803 10.801818626711366
22.152161414930802 11.523561692921673 12.066072679474125
20.510332364867878 10.147738802268044 10.911561706978862
19.427383805198865 17.180992319215946 11.65687383391841
17.35095546347823 18.441173874712877 10.076412850452854
17.977293929602784 20.45660086305511 11.138620312153336
19.91281892556652 12.449856406648461 11.508121190356665
19.760511019246536 14.903023097597938 11.032319252176503
16.695250253903737 2.5771890599132847 11.14200496543916
16.192451690078787 5.040578072400222 11.082630115425118
17.092128961499046 0.23023504108750578 10.519802430895876
14.693208158455818 15.7023747790645 10.479071857456294
16.04082805739259 16.265385540015902 9.93362637539493
14.98325464497644 7.9454951840890296 12.99008302650424
16.50693244760582 6.216801140238546 11.910435995331039
14.147129287293964 10.138638184750222 13.150423805044575
12.27740860577922 11.022371638411103 11.76529747307449
11.582186593853644 12.121895548378296 11.073394027645158
13.60755101565307 13.606354415122576 11.618552674682295
19.57512988729361 8.020204904642313 10.562885051534089
17.635670317935613 7.120407802851138 11.85215111840904
20.801547818846217 11.33913662071167 11.613274910236601
19.22729079011956 9.431858831244018 10.964683553464862
18.129858438535432 16.467546234272266 11.41214619125184
17.13692037311056 17.14016652574646 10.682036320596083
18.457511463512823 12.35032104807563 11.751070455873055
18.288952058390446 14.904822056874718 11.129785793407283
14.746495967686823 14.329853507789432 10.956078502738183
16.879576464004575 14.92185925943715 10.160283411535488
16.136227206502788 8.845059479385563 13.145432875623108
15.642295688515635 10.211845245201726 13.275541242610394
13.426532128115527 11.284405930244022 12.578589500754752
14.170622682053917 12.46037502736092 12.321929521080527
17.432897231123984 8.529395036877851 12.469477457540538
18.279286693313235 9.696369337610856 11.969007707277253
17.766309559185732 11.08518706351086 12.224864548883659
17.649811973033838 13.56984612391736 11.628706634539775
16.196956491501208 13.517591647983634 11.075229771800178
16.35160233273662 11.276215374477983 12.571418625149189
15.566084712552827 12.38646954742549 12.05632028865056
