N=252, ave_E=-7.227307142857144 
1
29.82 0 0
0 22.13560932073025 0
0 0 10
C
252
C
1.9108745460000003 0.6094375958183452 10.0
1.5044846040000002 1.9142587177646353 10.0
1.496111148 21.459565676465825 10.0
3.1455328799999998 0.6043840362104226 10.0
0.1759108638 1.9125675572125314 10.0
2.439794868 3.089201365582472 10.0
2.392545078 20.28139787036996 10.0
0.161734734 21.420961173810472 10.0
4.37686032 0.6364828832864134 10.0
29.29862712 0.5910229824244297 10.0
29.36118948 3.1136612138818793 10.0
3.98982654 3.0789304428576534 10.0
1.762961382 4.336210916665811 10.0
1.7267748120000002 19.02367468437539 10.0
3.9507027 20.31528748824 10.0
29.34261162 20.21895331647618 10.0
4.85845332 1.879490316204564 10.0
4.85636592 21.522253722062135 10.0
27.945514799999998 0.595425755118323 10.0
27.9795096 3.1038108677341545 10.0
0.311651802 4.343936244318746 10.0
4.66584594 4.328087148045103 10.0
2.492096166 5.556679872173594 10.0
2.466820734 17.8128125833128 10.0
0.2853469836 18.999945311183563 10.0
4.63012158 19.063872950901832 10.0
27.96468906 20.23072946063481 10.0
6.1994289 1.9016724103048679 10.0
6.18952866 21.49086542804534 10.0
27.26374014 1.8456560373578277 10.0
27.256195679999998 21.490621936342812 10.0
27.296094840000002 4.32286314424541 10.0
29.4450135 5.561372621349588 10.0
6.09747432 4.336720035680187 10.0
3.92851662 5.555241057567747 10.0
1.778056266 6.783501747556427 10.0
1.7659404 16.57965992366424 10.0
3.90099276 17.82788693326022 10.0
29.4277179 17.783792799493323 10.0
6.0674754 19.051521280900868 10.0
27.28198998 19.0215496658806 10.0
6.89295264 0.6257116957909461 10.0
6.8492067 3.109566126157544 10.0
6.82657332 20.276638714366005 10.0
25.875648960000003 1.8469443298202946 10.0
25.87051992 21.503814759497967 10.0
25.8888294 4.318413886771944 10.0
28.02242058 5.55685695704816 10.0
0.34742089200000004 6.78330252707254 10.0
6.77859294 5.557543160937103 10.0
4.62797454 6.780646253954052 10.0
2.4855954060000003 8.00638348448017 10.0
2.482061736 15.360983952511438 10.0
0.33587756999999996 16.569765306297874 10.0
4.61443626 16.597479089167425 10.0
28.00721238 17.78846341306 10.0
6.75581046 17.821976725571584 10.0
25.8812253 19.03646906656277 10.0
8.2523868 0.6198501864428168 10.0
8.233302 3.1029475789706455 10.0
8.2142172 20.2710826764265 10.0
25.1716584 0.61200532649955 10.0
25.17616122 3.0773809502052023 10.0
25.17168822 20.27867519042351 10.0
25.18764192 5.546740983588586 10.0
27.32329068 6.77692747158817 10.0
29.46102684 8.005121754748888 10.0
8.19286608 5.555506684879595 10.0
6.05176026 6.782549916355635 10.0
3.9092827199999998 8.006339213261528 10.0
1.773869538 9.230549086744514 10.0
1.77376815 14.134826145408226 10.0
3.9040642200000004 15.366584261669582 10.0
29.45697132 15.352085437564503 10.0
6.03732738 16.596549393575955 10.0
27.314553420000003 16.57784480369994 10.0
8.175689760000001 17.819630350983587 10.0
25.18394424 17.819364723671736 10.0
8.94343548 1.8551433595126927 10.0
8.93338614 21.51512605586086 10.0
8.91620982 4.321490736467526 10.0
8.89790034 19.048444431205287 10.0
23.76961146 0.6166338824085146 10.0
23.76287214 3.073617896620678 10.0
23.76934308 20.286356246857803 10.0
23.768508120000003 5.547227966993642 10.0
25.90475328 6.775023809186586 10.0
28.03846374 8.003262363565947 10.0
0.351810396 9.23012851016742 10.0
8.8868073 6.774249062860361 10.0
6.75011484 8.003837889408286 10.0
4.614973020000001 9.229907154074212 10.0
2.482851966 10.456618351410443 10.0
2.4830607060000003 12.91063840753456 10.0
0.350865102 14.132435499601588 10.0
4.6137504 14.140315776519767 10.0
28.03315578 15.35405550679405 10.0
6.74450868 15.368244432368636 10.0
25.89884892 16.58641128450706 10.0
8.877861300000001 16.59449078190913 10.0
23.774233560000003 17.826049677686598 10.0
10.3312881 1.84984409464131 10.0
10.324310220000001 21.512646867616937 10.0
10.317869100000001 4.316133919011908 10.0
10.30680588 19.049927517029772 10.0
23.06380188 1.8501827694639172 10.0
23.06415972 21.52090344989357 10.0
23.07787692 4.309758863527539 10.0
23.06490522 19.059600778302933 10.0
23.07101832 6.765195598648182 10.0
25.20067326 7.999632123637347 10.0
27.3316701 9.228534746296328 10.0
29.46281604 10.45595428313082 10.0
10.302452160000001 6.770441738057197 10.0
8.16984504 8.00188995578806 10.0
6.036045120000001 9.22950871310644 10.0
3.9037362 10.456640487019762 10.0
1.773100182 11.683462362402596 10.0
3.9032889 12.911767323609917 10.0
29.46293532 12.909243864147353 10.0
6.0337489799999995 14.140581403831616 10.0
27.32970198 14.13588865465562 10.0
8.16540186 15.367757448963578 10.0
25.19679666 15.367248329949202 10.0
10.29708456 16.59544261310992 10.0
23.06902038 16.60093224422146 10.0
11.0311635 0.6126273371214624 10.0
11.02880772 3.0789968496856157 10.0
11.020249380000001 20.28358929569271 10.0
11.01661134 5.539126333982255 10.0
11.00930544 17.82481008356464 10.0
21.66306702 1.8517477570428929 10.0
21.65367372 21.522585756201945 10.0
21.651198660000002 19.06130522022063 10.0
21.66655596 6.761609629938224 10.0
23.78291118 7.997529240751876 10.0
25.912267919999998 9.228224847765837 10.0
28.04245962 10.455887876302858 10.0
0.35235013800000003 11.68297537899754 10.0
11.00772498 7.99487296763339 10.0
8.87568444 9.226254778536292 10.0
6.74385264 10.45595428313082 10.0
4.61306454 11.684082159463577 10.0
28.041594840000002 12.910394915832033 10.0
6.743435160000001 12.912475663108182 10.0
25.90991214 14.138965504351201 10.0
8.87452146 14.14016082725452 10.0
23.78022738 15.370236637207501 10.0
11.00572704 15.368288703587277 10.0
21.65239146 16.601706990547687 10.0
12.43482072 0.6124391844422363 10.0
12.43440324 3.076185627301883 10.0
12.43049682 20.28562577175022 10.0
12.43013898 5.53624870477056 10.0
12.42676932 17.82673588157554 10.0
20.9495937 0.6187234839283916 10.0
20.9394549 3.065206365078801 10.0
20.9434806 20.292532081858287 10.0
20.9424369 17.83178280050067 10.0
20.94192996 5.546408949448774 10.0
20.95290372 7.992814355966562 10.0
23.0751633 9.226232642926972 10.0
25.203506160000003 10.456109232396065 10.0
27.33307164 11.683949345807653 10.0
12.427485 7.993677644730071 10.0
10.296070680000001 9.224218302478786 10.0
8.164477439999999 10.454958180711387 10.0
6.0336297 11.684104295072897 10.0
8.16459672 12.912342849452255 10.0
25.20228354 12.913006917731877 10.0
10.29547428 14.13982879311471 10.0
23.07244968 14.142728557935726 10.0
12.42566598 15.368421517243203 10.0
20.94365952 15.372051757171802 10.0
13.14146526 1.8438984699777619 10.0
13.13997426 21.518247176775084 10.0
13.140183 4.304556995337166 10.0
13.13729046 19.058139828087764 10.0
13.13800614 6.763845326479618 10.0
13.13597838 16.598320242321616 10.0
19.52789538 0.6206293598909064 10.0
19.52604654 3.088160991944398 10.0
19.52533086 20.29321828574723 10.0
19.52386968 17.83153930879814 10.0
19.52768664 5.523166559662008 10.0
19.53013188 7.989892455536225 10.0
21.6584151 9.224328980525389 10.0
23.784491640000002 10.455489435335084 10.0
25.912834500000002 11.68456914286863 10.0
13.137409739999999 9.222071148374676 10.0
11.0056674 10.451947737843767 10.0
8.87461092 11.682953243388218 10.0
23.78300064 12.913471765527614 10.0
11.00548848 12.910417051441353 10.0
21.653763180000002 14.14257360867048 10.0
13.13576964 14.138965504351201 10.0
19.524555539999998 15.371476231329464 10.0
14.557110119999999 1.8443965211874782 10.0
14.55666282 21.519508906506363 10.0
14.5573785 4.304158554369393 10.0
14.5560366 19.059268744163123 10.0
14.55734868 6.763004173325431 10.0
14.555470020000001 16.598895768163956 10.0
18.81525702 1.8528346154605406 10.0
18.816688380000002 21.524024570807793 10.0
18.82122102 4.305420284100675 10.0
18.81457116 19.061858610453648 10.0
18.81406422 16.60095437983078 10.0
18.81734442 6.757425999776606 10.0
18.81892488 9.22072087620611 10.0
20.946611700000002 10.453076653919126 10.0
23.074268699999998 11.684259244338142 10.0
14.55809418 9.221805521062826 10.0
12.4267395 10.451217262736183 10.0
10.29526554 11.681846462922183 10.0
12.426053640000001 12.909797254380372 10.0
20.9448225 12.912630612373427 10.0
14.55585768 14.139120453616448 10.0
18.81534648 14.141223336501916 10.0
15.266378820000002 0.6151308745356371 10.0
15.26652792 3.0747468126960356 10.0
15.2661999 20.290694826284668 10.0
15.267213779999999 5.533083312637696 10.0
15.26548422 17.829635646396557 10.0
15.26789964 7.992083880858978 10.0
15.26563332 15.369041314304182 10.0
17.39582502 1.848480541107153 10.0
17.39671962 21.52298419716972 10.0
17.3981808 4.304955436304939 10.0
17.39531808 19.06139376265791 10.0
17.39487078 16.600179633504556 10.0
17.397703680000003 6.7609012904399615 10.0
17.39868774 9.220765147424752 10.0
19.52756736 10.451615703703958 10.0
21.65537346 11.683395955574634 10.0
15.26781018 10.450796686159089 10.0
13.13657478 11.680097749785846 10.0
19.52559924 12.911878001656522 10.0
15.26631918 12.909620169505807 10.0
17.39558646 14.140315776519767 10.0
16.68625812 0.6167976859174881 10.0
16.686765060000003 3.0755436946315817 10.0
16.6860792 20.291646657485458 10.0
16.68762984 5.53323826190294 10.0
16.68500568 17.830410392722783 10.0
16.688464800000002 7.991375541360713 10.0
16.68530388 15.369616840146522 10.0
16.68795786 10.450796686159089 10.0
18.816449820000003 11.681403750735766 10.0
14.55719958 11.680208427832447 10.0
16.686198479999998 12.910173559738826 10.0
17.39695818 11.680673275628184 10.0
