N=192, ave_E=-6.419248958333333 
1
29.111236913050767 0 0
0 21.60948917339085 0
0 0 20
C
192
C
2.4097466801989857 0.73467293007019 10.36444691362777
3.6076973681605553 0.5468497330218288 9.568193081442633
1.6574395402734714 1.9721295228398303 10.204188675812667
1.9081891794240344 -0.2798623333356675 11.253364683029101
4.156327739023911 1.6358404913746047 8.768600535969682
4.156182182839345 20.866165964804548 9.377359258781226
0.3993974370759826 2.1937953408826387 10.910648692730788
2.206564802164348 3.058736754536781 9.385618181124766
2.6861636969357856 20.230177088942483 11.658930486622587
0.6261011945363655 -0.07801738704736819 11.927784767167669
5.409828489262964 1.442738096121184 8.046149839620448
3.461209624014084 2.9440984144719424 8.771822101422838
28.56438232763911 3.263486664454659 10.427003857336299
29.158106004480775 1.2766842984660967 11.991103171801488
1.4253822263447786 4.319888152185045 9.201403211121661
2.1936161239854233 19.167076659568348 12.427596003745254
29.039448602823185 20.35933700573184 12.519205610449504
6.099502802970049 0.21714511290773528 8.14918136020406
5.841926578763376 2.4977976345739012 7.164963827306689
4.080434744391587 4.068288869739255 8.05593168381457
27.22468320490051 3.3274507524078962 11.019127587626102
-0.011495066786145617 4.408703152687681 9.664137158029309
28.46843169077369 1.7258094385991 13.136926142612555
2.107301306538228 5.511478604184163 8.69643746981902
3.0221830601283655 18.176303190457553 13.100493166033242
0.7531164323116972 19.06512308964829 12.523774376001253
27.582722307694123 20.27229398334142 12.716599711851881
7.521441169988014 0.07553078312818609 8.464309035439904
5.109342301846453 3.7513208825439577 7.043364374929443
3.4968417779956584 5.432603968701286 8.226791800666422
28.351753853226185 5.69098863074752 9.514597947085608
27.564527784623465 0.9354963958052632 13.895809815541096
1.449128262294754 6.786243980011662 8.969977663750502
29.20322842169601 17.81386883804144 12.311561073514369
26.9333379458747 19.007425753555335 12.521431419308044
26.827227487326628 21.343973379917394 13.306204763696488
8.468051260689684 20.79898206296448 7.78233291596576
5.399377555211178 4.686039336738979 5.957169651960395
4.249279918487281 6.73920012208119 8.008369662942545
26.934531506588137 5.76478503627465 9.345670769505652
0.0021466131208656113 6.890963564545914 9.323295533085563
2.2444414325119184 8.003052705876128 8.840705028203015
0.7808274187292303 16.580247929600077 12.040129540606763
27.744085893903165 17.778234790394517 12.376168104329444
25.46613160545694 18.93767032250363 12.583636919512593
25.373790761968745 21.367290018735485 13.17230478867992
9.90553502821922 20.690545646292403 8.121768766893585
5.854240631977596 5.990344884266503 6.158898223245199
5.597217521272271 6.773148629572587 7.378172886388192
3.7041137848165793 7.906609555695284 8.571967895492595
26.22998135081848 7.024661474061683 9.023631372024859
28.450673836256733 8.19330264855866 9.185471105607878
1.6720999591828838 9.307034111066052 9.204507628740153
29.20497509591079 15.267341805381541 11.755343154547901
27.00614514939424 16.499666144472503 12.002993677019493
24.774739728771987 17.72215816598957 12.42993896043846
24.705163872549797 20.174143683515883 12.658611533695101
24.60627300075616 22.5300534121773 13.609851951135642
10.704114479218028 0.31670219047846426 8.455112930419084
10.59745090716861 19.42824894571795 8.025238951133609
6.524992641691199 7.854206544449811 7.773078237027605
4.549736994666879 9.113305040626603 8.73123037671309
24.84655715023648 6.935479112243099 8.439297972739961
27.017760532922548 8.267941824163552 8.911696616007074
0.1193726647485486 9.46538844772866 9.335478907890217
2.627155219713032 10.349259773898693 9.683993716004206
0.8161189712389217 13.979416250647448 11.444022783938518
27.72041845829285 15.28631493687578 11.663967843512975
25.551660419507485 16.542258447633255 11.856324588024968
23.38668684152081 17.61650937342086 12.649766872178258
23.251989148324128 20.177730858718665 12.263706183055685
24.194931223174752 1.202263378701856 14.968181094020242
12.061833457605802 0.20611390087450274 8.961660167489633
10.129458662554406 1.591054825062752 8.127919028213242
9.908096817067568 18.208522938815076 7.561977838969987
12.032925999351145 19.322773029062628 8.446209694984908
7.922128234859245 7.816281890950511 7.493446355693791
5.987278984670238 9.063538387060284 8.345521131094497
4.001543292357219 10.332663686213529 9.226062830317627
23.63599547444418 7.0970964817708895 9.245275075201892
26.49239004035272 9.502816082976972 8.27593531730636
29.02920144742979 10.277883631158982 10.60500999210242
28.845393097560788 10.35848702577573 8.149942821129354
2.0513262202018137 11.529872605397728 10.353024999748406
29.17702830847426 12.724877356686243 11.378712866115471
2.229437501006932 14.032770079416547 10.929450920193744
27.010861169774152 14.081866838818494 11.404953981079348
24.808887209670996 15.303559309236144 11.549104391628685
22.64015828212254 16.46766249100671 12.183108472809497
12.727025221069013 1.3648855894762089 9.482089422967412
12.733051247110014 20.50321298464828 8.945259470637211
10.613258308812396 16.91517340229846 7.466795223308605
8.483392882542862 18.188836694178118 7.4593563358076835
12.77403986868359 18.080054525679266 8.322677303335766
8.789497538683591 8.91164528766052 7.841961163807781
6.841373564462234 10.29718090499082 8.464601905026555
4.817764152925337 11.54085022589781 9.300510279244158
22.41853443550348 6.586658738006225 8.78828137219259
23.618295842401047 7.9775318991623525 10.294509656335656
25.11269207809559 9.916227220353113 8.520774291746104
27.51043910643902 10.337849963615142 7.633555165947346
0.7138948628187439 11.449139553845939 10.91334309292797
2.805915681101311 12.716860236202914 10.49711683638041
27.715760660386767 12.82957533173132 11.476121290635405
2.953160317407522 15.283635360218279 10.644078794961583
25.53136988737909 14.108662605393498 11.145998692563062
23.387269066259073 15.262760593676783 11.745034145097812
21.179443747536393 16.452579067563683 12.072520916890301
14.068267239364001 1.291138885774178 9.953199440053265
12.112981900862033 2.6916347524592172 9.408754878470152
14.148090250979587 20.416904684889754 9.354515431022495
9.9639321694668 15.589496069978454 7.06398239382963
12.091847142863157 16.91664284756225 7.732779381904507
7.574714733538897 17.239078035518418 8.235167870844624
14.130332396462626 17.963925130861465 8.73796637720605
8.325115087446607 10.162445739994729 8.260413229213889
6.269104869225483 11.52905144480914 9.051219687087329
21.23260086613962 6.549706511519725 9.577330612546127
22.75150876331496 9.172515040961693 10.292811012733079
24.69299537552014 10.684747093315586 9.622901120228931
4.267066884241156 15.34036026929843 9.959056831786274
24.801929624048775 12.951582507604284 10.74898468089976
22.642603626023234 14.038950393320139 11.442499862087931
20.454108168610816 15.272139111978033 11.571889645470083
14.8081584367461 -0.014851553624196328 9.894391227053863
14.742279707611864 2.5378184085230213 10.542570196228553
12.647464210585644 3.8055823098583423 10.099048494205167
14.801521074729923 19.139481341893926 9.353578248345212
10.838229947676453 14.602309776070438 6.520475014923797
8.619080357794592 15.235035619067322 7.4187060371806055
12.9041088752111 15.692811037716433 7.438035429899536
7.848447694232314 15.864174286861422 8.39747619576628
14.881809866136118 16.739639521743005 8.492073072254364
9.245525064926532 11.14247929298635 8.855114211866212
7.006288721574667 12.779765459186654 9.02919589417122
20.52618759120753 5.280667650323175 9.85151511956824
20.511719306461742 7.8175136318333935 9.952320831293314
21.21990836684553 9.061442266610465 10.203368640970048
23.358740054084283 10.47498378190948 10.224806694712857
25.474748531583206 11.830158066951167 10.093191102472161
5.167535664435642 14.136668503362213 10.068531483276196
4.690373380193827 16.585261331088304 9.303907566449304
23.378797696317378 12.815593992236135 11.067158199836769
21.185702663472696 14.012349112147694 11.39845227625571
19.034032920755287 15.445079853832683 11.200062418258721
16.185061720259576 21.481063979233387 10.514044698488803
16.091119758741158 2.376179429506058 11.036875484577116
14.067888793284132 3.815479455899755 10.432451231647999
11.910862582974723 5.059451309655173 10.223752364200916
16.04262043804402 18.946184461237948 10.092839658968177
12.263603440650158 14.645680020841434 6.651329146239199
14.250678249861176 15.561619828944778 7.910199777497329
7.4524475385040825 15.184966432652574 9.568895968450597
9.628745387649934 11.154061979183286 10.243374626506494
6.534628461109419 14.01991243335838 9.564502924650839
19.139532043328185 5.209853354301973 10.064255587311102
19.033276028595548 7.744754481786586 10.165354168622823
20.449916150495337 10.292772569199448 10.437840032042367
22.650056102672973 11.587094532728866 10.760465168696456
20.43244940834751 12.737994316614488 11.116711733898018
18.601003271673655 15.86981436353568 9.880977799985274
16.786121428803334 1.0893926948514008 10.986501915673244
16.811622872339168 20.151864300178115 10.606415766118339
14.783297440422352 5.076717291504712 10.413004691094411
12.571978773270105 6.309927619651781 10.499869810494925
16.655411975063735 17.611366314997593 10.28431779472022
10.365696350103812 10.110085947727601 10.92611220690593
18.345814168893856 6.4196389961850855 10.101157155229053
18.307445558642453 8.97576064203797 10.339435850927828
19.02308709567598 10.234967185660627 10.474507304290999
21.165353908870472 11.520494087096475 10.777627326474168
18.97025020067879 12.651729235834313 11.17721859049999
17.852786260534426 17.100453162471116 9.611479206349564
18.100435552953748 20.023936124271643 11.190280574064602
16.217637194365278 5.124279777175345 10.192063874925342
14.030684632509253 6.342795652684508 10.475561634802936
11.827313333034265 7.58214307575682 10.596751069758877
11.78603359909156 10.056062224794125 11.04138567621153
16.89659857288836 6.377003474045986 10.10625308603677
16.87016556977131 8.939327043291632 10.345761833999475
18.26028535484331 11.480516532125701 10.690879354908319
14.743153044719255 7.603341984635917 10.512228907051568
12.538617295767748 8.824429389356714 10.736391288673794
12.513377853364133 11.296922312108574 11.182607390894361
16.13347660844965 7.632385138084954 10.254386522964545
16.129983260020083 10.213725057803185 10.353552165004377
16.83761920690252 11.488512043119856 10.620297784525569
13.964107233689106 8.882688572168176 10.572852911488205
13.944981151037231 11.373484732249898 10.927517980921856
14.65302465523645 10.154082867684625 10.501451306262837
16.089751530606247 12.641010929204311 10.95241189578714
14.678060318981677 12.556064027263712 11.199593826920086
