N=161, ave_E=-6.417725465838509 
1
24.41089542113987 0 0
0 16.442576549647285 0
0 0 20
C
161
C
2.2116515360506934 0.8169148864584711 12.047134363662497
3.577367902177206 0.9727214533276188 12.387970058415878
1.5216434017185851 1.5889102980409606 11.089608395382573
1.5784817306171675 15.925276648818832 12.185348165906134
4.451107081986065 16.28148862719039 12.58984701749728
2.166069071030799 2.5898044620287455 10.232190019357883
0.21837425593157042 0.9456421740080048 10.787623844045935
2.4745324688409487 14.78282998757279 12.273193007879392
24.41138363904829 15.866099815816652 11.686873097200742
3.855285946546883 15.015492445750297 12.787426283722844
5.769026914877986 16.35837411513654 11.988914951108793
1.5264401426688394 3.771877732759438 9.713945563515654
23.402212811442947 1.6812370096248854 10.405472995305129
2.2103772873097096 13.384092885647393 11.665556540635809
24.153165187283477 14.16784473946288 11.960263665403232
22.648990222328255 16.102889360708122 11.484766927833704
4.624180330521947 13.806502677207831 12.803700214003602
6.275845925611691 1.1819598169525005 11.356695680729835
6.637395697694194 15.146095831284146 11.961123203974399
0.06360039103919203 4.139846153363995 10.110307449966417
2.3307205606463874 4.889150809307971 9.04952224800364
23.295244267707513 3.167119767263411 10.159988779379866
22.22050577500099 0.8387703592082623 10.652217867801443
3.651039984558206 12.734002736603987 12.266660514738525
0.6901131011824189 13.166985104885851 11.662576806922427
2.5622408160891044 12.498380614647543 10.186634475086038
22.741287817915588 13.762420129478228 11.876028885428873
21.85751576008864 14.853023346863234 11.689967436056943
6.040012264948059 13.86258830581868 12.360063706138657
7.717724285452161 1.4083839615870732 11.505739668970175
5.546497192218874 1.78684767880327 10.254022299065525
8.003990856055868 15.34084170793817 11.469982864409634
24.076368510288567 5.590541797186275 10.039710681987913
3.828263085315681 4.98803646467755 9.194497753673794
1.6365161933913852 6.120634022570354 8.635453866986843
22.032761578317004 3.8369245655898427 10.296196991624111
20.865871955395676 1.2789266236387353 10.171907714233381
4.27774090270513 11.612619015918044 11.57060617980757
0.32492610568216646 12.282982861847163 10.601734302388241
1.2631369013877984 12.161850400405912 9.609712186118816
3.6186955481251957 11.39740213145971 10.206231954508645
22.405223020652755 12.399560729584163 11.291026933892685
20.488992140988696 14.578794055168215 11.124964081943236
6.613375376599793 12.533995235454078 11.961638927117097
8.282885336242389 2.8210528586229846 11.716670434334535
8.589486182731907 0.2452854241946733 11.340421750449071
5.685981048655267 3.138542569220124 9.870668096325087
8.61929188604112 14.522609771098072 10.485123569566596
22.874498074228747 6.094572538739163 10.676915276079637
0.4014933202601138 6.518741685990414 9.252201443084797
4.392667398347856 6.434111744489379 9.190085455675138
4.701416403634433 3.7338624957766537 8.962708852315785
2.2777025368812134 7.485515859380025 8.337709705934628
20.97611155911754 3.5615114083832506 9.336436223059156
21.997292547270085 5.02018170183211 11.103991340806765
19.679209507183224 0.4210368364185432 10.242389877069062
20.6274507398174 2.251054499952912 9.08751385284922
5.687201593426324 11.407399218001897 11.802452383736988
23.399112627724463 11.680247333266744 10.54620811069086
1.1009826463737924 11.179981941743725 8.611042971565702
3.2441835905740675 10.085432505986804 9.405313913895327
21.100216551438617 12.18426163224308 10.621331781810849
20.124659526828182 13.197716280457142 10.992709747126359
19.937403548052618 15.418976831702093 10.113860209393906
8.012461436767003 12.34049899461783 11.62160546836347
8.088843128539748 3.9488327415867426 10.787910356902994
9.679359430599538 0.16257400252545157 10.290982457625702
6.477431099999464 4.016872123349183 10.651301026658864
9.650823093852226 15.26801753639978 9.658705884675328
8.685152481887354 13.078540485625297 10.569129139255313
22.282045642357684 7.274672700283899 10.033579306846917
0.07843489218661873 7.951186069842586 9.277815692505573
3.6898533082778187 7.628763586280552 8.66433436297805
5.380942499472703 7.043588729455156 10.118272507392561
1.3747752494172973 8.631958066727632 8.558152698153233
20.213539597056553 4.646951656731667 8.774355300087414
18.523304787201408 0.8008291138199511 9.141492875118502
19.364943639531468 1.9407501953079682 8.366590201925835
6.189773108356753 10.060143823253448 11.78474588917095
22.967210655038237 11.020719145283842 9.25947886965401
1.8822948528495902 9.991364525546272 8.812862628075692
24.092626166639047 11.055084130272602 8.22688653282551
4.157834584396491 8.837013438878284 9.258332818225789
21.261059941368508 11.629702852953129 9.20452570367074
19.286877595974666 14.83219060237483 8.967808781171374
8.55677558286758 10.955738082759634 11.506541904969929
9.27164865527566 3.592028830459396 9.643234190394324
8.618583970073907 5.463128271503059 11.09453641652393
10.255993602237705 1.3281869387238237 9.6703956092432
5.833325213417268 5.027416435513954 11.386206505006562
10.823424866302101 14.55940825741618 9.263490049652791
9.78925728178551 12.297830508471495 9.983496859433593
21.082103667036133 7.121247018499139 9.213006484239585
23.175313538503453 8.359438802993779 9.577851956414229
6.190090449997227 6.334009338455127 11.056258298821298
5.324260400304817 8.54213227103691 10.082744913117669
19.003027704017647 4.383196286298774 7.931549079772562
20.092070981440962 6.039177498343402 9.415284561320863
17.222472581104288 1.5853751440827866 9.29918955164192
18.35591927729865 15.867201468445476 8.414094033625663
18.487249894664384 2.988536943357692 7.874303810932847
7.591104970902708 9.848215454105043 11.434913690706022
5.248806322558074 9.063970322993066 11.391650249290624
22.510214281859078 9.5799054899679 9.025283260296735
20.32651322106559 10.601038821430645 8.581016424146274
18.593266413478396 13.557331872174476 9.113987640841163
9.83698058233384 10.826055481512567 10.478189958425855
10.428554221969742 4.591178437075263 9.696926699806554
9.440523229799107 2.3324781390267653 9.054794084573466
7.617859312284277 6.642389861643761 11.1124148188042
9.982371875462148 5.914411227484678 10.324790974758265
11.713934331265284 1.4567629545691003 9.622433356972085
12.215456177692603 15.184242608879329 9.244293688230062
10.960418811405537 13.05834900162233 9.48118251844366
20.562664223369694 8.144616540372638 8.347221932788873
6.549101488955932 9.041904385263438 9.40136003646796
18.088156165424166 5.469836842735314 8.062256245161343
18.731602957829995 6.64482336297311 8.786732655512218
17.021277981043248 2.721229976390076 8.339199572791319
17.017250183298763 15.217851235346807 8.156404369989822
7.853229165934907 9.040013488960229 10.103030023397203
21.122625753435223 9.44834843499417 8.471224697322551
18.820849191489682 10.436448630168673 8.23863355996479
17.25086245247907 13.781213994474475 8.51282636416703
11.139741249169232 10.379573757883444 11.022335176545909
9.254634261167126 9.691057307443515 9.562724077561693
11.878488177299188 4.1540525395028896 9.654580099533732
8.184436195008933 7.580455296377689 10.165317918521101
9.459685782704701 7.109687887184737 9.469206281018732
11.066362097533284 6.555063337588585 11.079236629957158
12.351668974142564 2.760988126487123 9.328757678490064
12.495693257127288 16.605193631723296 9.580144059270676
13.15490948797517 13.99167897430996 9.531895294142508
12.399489918272575 12.775026965095359 9.806947636915915
19.121835532032335 7.9753730999471175 8.156404369989822
16.785786072915514 5.147134835371937 8.61797658270645
17.570718415182267 7.122628194929311 9.74053395665042
16.1580598971609 3.8871895221021147 8.570701961292269
18.197590209597138 9.092547521036353 8.489962638173992
18.256151947712453 11.19377726346888 7.10123482002534
16.40387761405178 12.67189912497597 8.048675535736905
12.343003106268057 10.23754278164759 10.22634515707395
10.081284823708607 8.484468155077296 9.197706697672817
12.890148916237488 5.239936737418146 10.094148124828479
12.429466497849734 6.547680620717793 10.652504380658502
14.453642357066075 13.870842479246603 8.92219593432812
13.037102506672749 11.42494344718037 9.759558410358913
16.578049352881614 6.09564130621489 9.68368980581058
17.083647818844263 8.565168320782966 9.51017761957769
14.891158835699166 3.872539186396379 9.210542473668909
16.937182446317426 11.772983465006755 7.076136293747265
15.04653418505472 12.596049519352448 8.60428126813919
12.668473574918115 8.951437329087279 9.535448053569997
14.345038283337423 5.108527665633365 9.872157963181778
13.246718865654078 7.785181816997347 10.240384287069674
14.399279292963197 11.330875466739839 9.109059619699803
15.250926612415922 6.278647183212465 10.103259233682849
15.597292807546477 8.84145293454669 9.596933712694135
13.552514152594696 9.249393258743439 8.387734850776543
14.741910621094314 7.644384034002718 10.094835755685413
14.849733546169489 9.864970439609133 8.723642524388566
