N=210, ave_E=-6.304545714285714 
1
27.26071506729067 0 0
0 20.23583294880231 0
0 0 20
C
210
C
2.663330971001697 0.12389894618727935 8.358488088895747
2.21622253104005 19.59654251428375 7.154134928468171
3.6750169982214556 19.734955611653557 9.409259755986472
2.5950319754721076 1.699168491794917 8.502251336765706
0.971757257860697 18.84213042611945 7.069555406066236
4.21941347811525 0.8067318342534273 10.125662571869547
3.0720099809329855 18.646207091509144 10.208432026671442
5.142324986718375 19.380180988395153 8.875015561307578
3.5536795554569443 1.9962689675659377 9.639028640125069
1.5658309388216154 2.73238381557793 8.005634607954335
0.7642296122679333 17.541593678332873 7.827150972483583
27.06340201163362 19.3338004592765 6.349422753916414
5.740534118155002 0.9511266438429011 10.225380841471829
2.6065796143746116 17.424165139730974 9.642813326925154
6.35161030710339 -0.055651373625819185 9.323199269184503
4.132015625609515 3.3184135377752444 9.914213765864702
1.17445157867203 4.011207514610441 8.76822157290513
0.23693159807864475 2.4867815110783162 7.3654191828730085
26.62488614906118 16.83174089432184 7.718327514347756
1.2567053342445662 17.232471094206968 9.205819127848482
26.508537417153985 0.4693094377486232 6.440529489785167
25.896997796049455 18.476468924734593 5.995088308574967
6.34929314632267 2.2304137434499394 10.75759556641735
5.555079473552223 3.4395249979738267 10.501553276811485
3.3707056359252894 4.513622775063304 9.726186137593732
26.994732270379114 4.4962806662261805 8.561599613833732
1.9332726650706131 4.439579862303637 9.836929364396266
26.35873978785922 3.266124145435539 7.881617552084826
0.03099570563866016 1.5852812239590577 6.274387224314694
25.647153342457734 17.18111255018291 6.7167019251248234
26.323818811858025 16.202932621270755 9.07231292971209
0.2676132602797297 16.444204457519326 9.987987733199724
25.033732732013558 0.4859878112650261 6.18755883004604
24.794956128739162 19.340822293309735 5.643606090966916
7.308897577406368 2.196053299102873 11.825864553641807
6.059375441582033 4.830617098206293 10.685028310815685
4.019238047376135 5.749485800745508 9.57375650545691
25.97569948044872 5.129095634201128 9.642703625858484
1.3151005119902095 4.660029026447889 11.074083143757925
25.12549229893006 2.8226963380284347 8.646124285702331
24.22032751583574 16.614691350112984 6.618848573655914
25.374873320365637 15.127033855048834 9.394559813052805
0.5864706675286511 15.459427647065858 11.033713151223669
23.92550288238299 1.217284507451908 6.840938383127668
23.489276919876207 18.812444459183556 5.603565201632669
7.634881208181031 0.9949999532591993 12.525592807391163
8.40884016965648 3.2409102975813315 12.132588736048831
6.779876140810526 5.311076479909706 11.880331133243054
5.198045888315917 6.0447468393014825 10.34084121414114
24.90230882467415 3.8402754336919074 9.743244653460788
24.803052561114146 5.987358017058679 9.139833936246973
26.466147005224347 6.026332231318072 10.85122542681949
0.5690565227436658 5.848175958036817 11.367588347631312
23.98929295564045 2.001202463638856 8.156802677824462
23.716576762107273 15.448540768939406 7.4106708728740465
23.271245720768018 17.33876992468703 5.812106929370778
25.676922043311215 14.237426166953586 10.528594589745438
24.064941439952186 15.030225630221763 8.776558853971984
26.886479970846903 14.431568748264397 11.373402504164783
1.9586851036563413 15.304239044181497 11.548759659235465
22.515306091952045 0.6700124761014343 6.659712220990183
22.3312417438177 19.595631901801053 5.990755116441534
8.978616375277923 1.0079933815956252 13.139096022738542
9.57630755312827 2.3691303783139794 13.034002400869468
8.103274814467218 4.71966402614801 12.288638503385737
6.400379726358772 6.699133205199852 12.19467953978359
5.162089005142161 7.200010542348606 11.344989927897462
23.454492247450343 4.232466112072645 9.993856740266526
23.420579917906636 5.635335467081314 9.528230562789197
25.746545909593074 7.303152582888652 11.267540974829025
1.3007204847922138 7.07980969463272 11.883567314709797
22.693182257766118 2.215924887058597 8.854336910240434
22.24008191263268 14.926031326368381 7.182053849935478
21.83730484751346 17.2058205022134 6.112194197244314
24.74986690601786 13.103410088502704 10.815627430685346
23.091434044184165 14.035330903293897 9.243830547449353
-0.03311658927089538 13.37402388252704 12.296646681252586
2.3690815386368684 14.184104747133492 12.366635961787523
21.411083567436368 1.4615229168107724 7.117988427000675
21.244438816230023 18.61350598546388 6.343937700582952
9.874049083093217 20.055025781404762 13.021770731935856
11.111958154298888 2.527556714470153 13.221316972207095
8.895607497898022 5.579767869803903 13.147872108072079
7.510899476054993 7.5734426035858045 12.620648781660005
3.860989596410512 7.748644445256535 11.960412911911554
22.392087659847892 3.305159067193779 9.705726888659928
22.56900970063461 6.67145058572589 10.131531578936347
24.375849895294635 7.391239163714788 11.608656441636835
26.580696529937104 8.522968593042455 11.389144607231806
2.70946700518158 6.848939076519835 12.283263151118945
0.7042178741187997 8.397202891265648 11.802443375907938
21.276388374288885 15.993795287744883 6.681378181657347
21.92268540710421 13.933827965222704 8.356952273962378
25.185384089932896 12.011019118427509 11.708210159639115
23.5296227781758 12.927520228511716 10.074487024268372
26.518978271024757 12.140487977633947 12.322481282453179
1.3303610602848788 13.24271356252226 12.78876566633052
3.819362484502759 13.97379373529659 12.590864942059323
20.30487101072078 18.793281125381043 7.390156773406911
11.327535889051022 0.05015086951367575 12.908449530066594
9.303754923885498 18.892679536825558 12.301802631386039
11.872559365391364 1.2348552812013531 13.44582020514557
11.844917000313131 3.782481894790128 13.324545675942787
8.793216252105278 7.031830534711111 13.002902148468756
9.829314249667796 5.05215899732978 14.005460196758381
3.7443409966375754 9.12097792834546 12.437612551922477
21.136868034574494 3.390351923908237 10.341883374274499
21.093087326176427 6.755267405799829 9.840604350129684
23.348938758709792 7.758195758408369 10.71250842801631
26.069803468861007 9.815289592651817 11.891904595776651
1.144235802091445 9.500703333629737 12.64171138646049
19.83710440088114 15.803214213033062 6.43235676031831
21.25482514867066 12.642883002253862 8.174464549558202
24.82191697594071 10.619603244867864 11.418270240432474
23.003981670248297 11.559213676179601 9.82118726132924
0.053104145558232896 10.793530229062817 12.756019897929772
1.4750309490754836 11.778064209520897 13.019850963269146
4.397562251079994 12.771380541478756 12.086953092314449
4.526887083359221 14.85423459106603 13.55469851381472
18.940036050161808 18.21815851714313 7.422683139674323
12.073907006878374 19.521953234034463 11.887022898309873
10.02054816586484 18.171069733871267 11.305716946029897
13.225944825622078 1.2259150902045723 13.871953998621986
11.217920553765447 5.044975276632956 13.682993911284331
13.18799791024841 4.08049500662714 12.631838290460259
10.009044144106442 7.87273057289859 13.091650311404123
2.567547722541265 9.6677501346221 13.139425125938548
4.728779939147576 10.207095790206528 12.13747043351561
20.691918643246176 4.501521746959921 11.107158015358685
20.208749729393514 5.819886263574391 10.477802995877607
20.581349182933245 7.888757352594042 8.995028528243655
23.50939532759587 8.966942767939178 9.885746339064049
18.764368002268185 16.758750244875507 6.974170328597385
19.17957595345809 14.470421547526096 6.14559817204508
21.76948018842604 11.465218232132413 8.815393031572878
20.046030521156858 12.59207082571942 7.450602061141627
23.762647370571 10.333043614479871 10.453668761210388
2.7295063568275455 11.135455098398731 13.231683723007329
4.0608378985688205 11.46070564138483 12.584776532859188
17.7631637199918 19.07271774257105 7.7627015958154395
11.36035778999204 18.635785637540515 10.959390678555302
13.151768419923979 20.132873030758805 11.112917321358818
14.331530385891117 1.3466096922444089 12.983704461801654
11.869369861728492 6.1061221206352005 12.884315295399375
13.056028788607655 5.516814193500179 12.13675737658226
14.458374493099221 3.809031307618957 13.328440063809545
11.343892318091397 7.437437570336903 12.68646942166151
19.95596111857453 4.356086815556878 12.360218449387375
18.939545357290598 6.217115664359381 11.181754740693727
19.302685342701974 8.708814482844256 9.338612269051524
21.524624445691632 8.962551592189287 8.441586646897651
22.922990085783375 8.848927390181762 8.579206635034133
17.59041256861038 15.841621823969891 7.334483482072304
19.99289938749071 13.278874996001768 6.193263285512835
17.8519246082509 14.41325531944573 6.864359560861537
20.955175368651002 10.263756122463173 8.661701837169357
18.758016255657505 12.348573047846482 8.083302963156115
16.833300729046517 18.644547753207345 8.785115537172185
17.389528359279517 -0.04479646811542266 6.868034546594956
11.913995652293647 18.783264388071384 9.55752074758987
14.287804198923185 0.6479189936879319 11.628238082037278
13.143372119683255 19.613216840633562 9.73743049692732
15.270580237814078 2.610159384567164 12.929237882200404
14.156162205863236 6.350328152661346 11.547717499102106
15.217176496997256 4.919654763181023 13.841676504221294
18.779961131286676 5.303690400883393 12.392196310321442
17.821474389520738 6.923305762606684 10.58300631881335
18.01382599503554 8.195046920107114 9.879712780397245
19.59734641186432 10.140702022301506 9.11087285464631
16.6198765907847 16.18075414835887 8.363863441162536
17.605733090478196 13.290409420782588 7.8087760438164935
18.606228594162832 11.216196071864454 9.004407969443871
16.93479237124204 17.293927318872484 9.21525341958203
15.662125888325575 19.462844365991014 9.160457736780778
12.235617568657542 17.612904753644454 8.712932235303864
15.247054240711009 1.3339440844017536 10.741688911750316
14.30756821734697 18.845894291047927 9.201376234648379
16.540847777804622 2.5043462140778767 13.755232063685987
15.640617184137483 2.5699912561637914 11.43318958549948
15.650131173695968 6.146350956537419 11.695100882172149
16.203769035997574 5.551700769503914 12.976025387134808
17.50863042340851 4.776486245068247 12.954962782334324
16.510561123364862 6.293020273750337 10.537535226678976
15.32810034660606 15.507305627822728 8.517883738766063
16.35452079031969 13.183402336149319 8.611129645434868
17.445058435871587 11.228276864134887 9.858375922930094
15.970471836451699 0.6411723669828012 9.685925846126143
11.252541661900906 16.851916019771792 7.927746850619219
13.7584828944616 17.46378690064473 8.659617516902642
17.628386744699117 3.504866502565509 13.718153103151803
15.19561327137903 14.046986743072408 8.320202416628202
14.254437083680822 16.179499526716043 9.165887939580902
16.354956961760767 12.178652758575389 9.682360561459394
10.407677580535433 15.795362709848929 8.626323243168546
10.809309695621826 17.28569133486232 6.634316424056269
18.877772576948118 3.2370654893210595 14.395831442500654
13.932706124456654 13.406866639402944 7.9508937756864135
13.378114137127694 15.458294440420728 10.08189184626854
10.94490449236653 15.005214140697044 9.703532867326544
9.064433106309753 15.430955830106896 8.020115148754666
9.523449026612793 16.9911587862925 6.066777955643275
19.96861009036575 4.190942182861703 14.589563526238422
12.71477915739531 13.411601824312966 8.768386124505135
12.328794692757542 14.560228174152881 9.634476045858296
10.07907692111431 14.560835249141345 10.825610227752236
8.090135149804784 14.492357190442597 8.715455359837254
8.59165052489773 16.151675256411437 6.787459113126445
6.700002245663364 14.426145545034117 8.231399403159504
7.137891111789254 16.17340854099845 6.547213777120945
6.235479660916731 15.357499756502744 7.284350094604488
