N=140, ave_E=-6.437769928571428 
1
21.299999999999997 0 0
0 17.21658502723464 0
0 0 10
C
140
C
2.4834522 0.5885369075464971 10.0
3.9004772999999995 0.5794241690915818 10.0
1.75556517 1.8197069544535651 10.0
1.7835128999999998 16.58654409816299 10.0
4.5871892999999995 1.786014097555267 10.0
4.615709999999999 16.583376246517975 10.0
0.37318664999999995 1.8056582210713419 10.0
2.4189557999999995 3.0437372835498393 10.0
2.4910136999999994 15.367695961159912 10.0
0.37708029 16.58502903868059 10.0
6.048923099999999 1.7853770839092593 10.0
3.8213690999999996 2.9962195088746713 10.0
3.9114680999999996 15.369555352342854 10.0
6.0435981 16.584736356735128 10.0
20.984717399999997 0.5611074442811068 10.0
20.9452698 3.015605383615338 10.0
1.6108806599999999 4.405345343598745 10.0
1.78355763 14.146058737382424 10.0
20.983631099999997 15.367110597268987 10.0
6.7522704 0.5804416692666913 10.0
6.777936899999999 2.984116249600526 10.0
4.451827799999999 4.18927720150695 10.0
4.6222704 14.159590973213831 10.0
6.752696399999999 15.373033102518356 10.0
19.603007699999996 0.5224510459194569 10.0
19.5367008 3.002262530219231 10.0
1.45697112 5.981833601372566 10.0
2.4956783999999996 12.934562082185977 10.0
0.36596594999999993 14.144044396934238 10.0
8.176026299999998 0.5910057658394026 10.0
8.182714499999998 3.0288105043312266 10.0
6.087135299999999 4.160198389395951 10.0
3.6149294999999997 5.729920529254069 10.0
5.240162099999999 5.5666900866108575 10.0
3.9222032999999996 12.948008235092246 10.0
6.048092399999999 14.160882217090872 10.0
8.174726999999999 15.373136402028518 10.0
18.892567499999995 1.6953739423623848 10.0
18.858807 16.523118198922656 10.0
18.796909199999998 4.257523744554908 10.0
0.21510443999999998 6.544178918117131 10.0
2.5303547999999996 6.690537107433654 10.0
1.7941671599999995 11.712666609633079 10.0
20.966101199999997 12.940897785475999 10.0
8.882717699999999 1.8204817007797909 10.0
8.8853802 16.59045226296417 10.0
8.906126399999998 4.293850738962374 10.0
6.895427699999999 5.541743254906395 10.0
4.642271099999999 7.0405330644523065 10.0
6.180748799999999 6.951488886691449 10.0
4.643016599999999 11.750870211808513 10.0
6.762877799999999 12.949523294574643 10.0
8.8815888 14.157611065935699 10.0
17.527471799999997 1.6412811538653163 10.0
17.418245399999996 16.522825516977193 10.0
17.398585499999996 4.337598081516576 10.0
19.456634099999995 5.4373590998862715 10.0
20.739703499999997 5.406472546347413 10.0
20.9571552 7.919370863752525 10.0
2.6513174999999998 8.122733166094221 10.0
2.5141880999999997 10.513893010771758 10.0
0.38002181999999995 11.701131497664832 10.0
19.5647955 12.966688229846797 10.0
10.277910299999999 1.8354256965834304 10.0
10.3065375 16.593602898024155 10.0
10.275162599999998 4.286602556665908 10.0
8.248787099999998 5.541777688076449 10.0
4.012281 8.231318167860989 10.0
6.840814499999999 8.136110452660382 10.0
3.9601385999999996 10.553439506579316 10.0
6.070436099999999 11.749182986475844 10.0
8.179604699999999 12.94356635615522 10.0
10.2935445 14.158747360547494 10.0
16.7287857 0.5018066388132999 10.0
17.026900499999996 2.842682003601793 10.0
16.7003289 15.360120663747928 10.0
16.6655247 5.59960819718293 10.0
15.885987299999996 3.6504841730796422 10.0
18.822916499999998 6.6530738184143905 10.0
19.5428778 7.965098113584862 10.0
0.39869978999999994 9.19644549131771 10.0
1.82574441 9.26162748223082 10.0
20.977517999999996 10.466030904396046 10.0
18.852182699999997 11.765487092496636 10.0
18.8304141 14.181783151313935 10.0
10.985837099999998 0.6128501689219579 10.0
10.9549521 3.047679881521076 10.0
11.0049432 15.381142114066183 10.0
10.971118799999998 5.519878191921807 10.0
8.9241675 6.791701761053684 10.0
4.691431499999999 9.381833678890972 10.0
8.220969299999998 8.074767760208346 10.0
6.114037199999999 9.357334478397217 10.0
6.794742599999999 10.537324782993824 10.0
8.892473099999998 11.722118514813031 10.0
10.998446699999999 12.941414283026816 10.0
15.224302799999997 0.49641096106576454 10.0
17.404080899999997 14.192887848656502 10.0
15.2608749 15.362548202236768 10.0
15.157761599999999 5.616084469053994 10.0
17.488322399999998 6.6888498821009845 10.0
14.743327499999998 2.8320077208849077 10.0
14.414391599999998 4.368846183341008 10.0
18.870436799999997 9.292204137239189 10.0
19.5752751 10.495798379908134 10.0
17.412792599999996 11.818514174380518 10.0
12.312528899999998 2.994394550861785 10.0
12.406184999999999 15.375908272217902 10.0
12.326629499999997 5.501043247902013 10.0
10.2921813 6.776447866719554 10.0
8.912814599999999 9.276984676075113 10.0
8.200350899999998 10.515408070254155 10.0
10.294289999999998 11.717418387100595 10.0
12.405844199999999 12.953242076940526 10.0
14.3316837 1.5783183807622165 10.0
14.555184599999999 16.54262458975851 10.0
16.701585599999998 13.008765563653357 10.0
14.547111899999997 14.177117456771555 10.0
14.369533799999997 6.7125743362685135 10.0
17.093462999999996 7.923984908539825 10.0
13.015279799999998 4.278855093403652 10.0
17.469045899999998 9.43632417050217 10.0
16.706612399999997 10.68017078896479 10.0
12.930569699999998 1.6419422707303621 10.0
13.113068099999998 14.167734417931712 10.0
13.1439531 16.55402196904654 10.0
13.0237146 6.703707794979488 10.0
10.991609399999998 8.009912884410753 10.0
10.299380699999999 9.259991906653234 10.0
10.996849199999998 10.494679301881364 10.0
13.110299099999999 11.75928912188683 10.0
15.250821299999998 13.001861713057437 10.0
14.828719199999998 7.927290492865054 10.0
15.969951899999996 8.71481152518082 10.0
15.239234099999997 10.680601203590472 10.0
12.366204899999998 7.996862712960109 10.0
12.384139499999998 10.50877968501867 10.0
14.541105299999998 11.812884351076613 10.0
14.467790699999998 9.430384448667773 10.0
13.066186799999997 9.29867757320943 10.0
