N=116, ave_E=-6.498851465517241 
1
20.10073316228012 0 0
0 13.926196442581482 0
0 0 20
C
116
C
4.73673776969131 1.034844516691076 8.447543938469288
4.636837125874778 1.940100205005354 9.619388370938456
5.617089579999694 13.87320726511746 8.4545650396302
5.8056947592613675 2.6699721605610494 10.289846910021726
3.2544494041052876 2.2403907788967383 10.04116403664501
7.062030783370199 0.3216547518539487 8.748205609150158
5.166792955698295 12.524886851743162 8.960367432133438
7.21586169426113 2.7881498635727957 9.625333658211808
5.4574294564917025 3.6468948410081405 11.307453604085111
3.0340850664472105 3.6635366457570258 10.518712159153942
2.206397177024002 1.150770353738057 9.944001056063392
7.461814265234789 1.71080538057825 8.584512032890576
7.885216108565057 13.386528478038564 9.631335567268714
3.730173455856971 12.216950796004802 9.149540810993098
6.158020410129814 11.622873181960719 9.420702532441435
7.339601807608126 4.129061540439639 8.939813724702713
8.380880087613722 2.6701671273112453 10.675101525334842
4.173334319885761 4.356337066382569 11.254115883975626
1.8775391321225183 4.44508871631114 10.022535469855178
0.7097287469336839 1.4063090953612059 10.345109770772108
2.126456561237614 0.3206938442994106 8.652401551373881
7.600388719655548 11.919570797169916 9.464584414697118
8.518489706842693 -0.004572959052046924 10.813824895046352
2.717880433071382 12.856204991308617 8.39675419861981
3.387254948108472 10.87567703803045 9.87395990980497
5.824448743301775 10.662007406011922 10.42126606965455
8.156857416520111 5.279574259543508 9.401734234950268
9.222940001247963 3.921797958784699 11.121734154022356
9.052425481832339 1.3824368094193327 10.892246065271028
4.1622588159133445 5.838488227570073 11.363169439103938
1.8989021913273896 5.885294173813589 10.216521700317074
0.375863609401476 3.8766770823107346 10.05956611630062
19.910519924365467 0.7421172600876573 9.337468510614528
0.31228499040918395 2.6468546744663644 10.901248928856383
0.6474787864034186 0.20238523504110392 8.350664066805454
8.209702244003745 10.73002294943749 10.239113791955802
9.239724113438466 12.960846431378176 11.578898434451233
1.6305131819979928 12.027234221867513 7.919262697894428
2.1742159032311914 10.07510178313577 9.509655354407471
4.5091773695611375 10.145053067866856 10.522958792920626
7.0340103613419815 9.926453562307655 10.858046508003369
7.599544488862732 6.611809916026623 9.489667864812304
9.272870222423066 5.092030172051263 10.279824854332364
10.29189699081802 3.765337141752296 12.197151689096128
10.43650166518746 1.462069585917302 11.353543735899468
3.0024264117166197 6.566897932499298 10.852554194998465
5.3703530804327055 6.56976672896647 11.778093869000251
0.579373482302981 6.465529148593747 10.281410264271926
19.725914791003085 5.326491615358565 10.355584800729915
19.721834342171142 3.409801346573191 8.831099900275731
18.59122840399237 1.2456843455924709 9.038052519171888
0.35881416753323 12.839354293613095 7.758173723678407
9.609115286761687 10.754755874319516 10.739027518969245
10.170709670582632 12.03379346039197 10.970327504794358
1.315972889328001 10.650671482107661 8.516169540138822
1.8586745940497182 8.767111634659189 10.217201161719736
4.353456989752953 8.732393626927834 10.90226812096039
6.943536961378558 8.436099871415468 11.050050976040815
7.963407960566327 7.535339559312856 10.564858912751856
10.110507974761603 6.25563351581116 10.752503503455511
11.441256913037197 4.777604508770659 12.300486444085319
10.89341143069925 2.398202436984072 12.369565020023298
11.530323261679259 1.1699606524359343 10.465261195477346
3.056356678791017 8.035457125958843 10.731043847487893
5.580968562507076 7.9001084227333935 11.267591868461889
0.4036689535848581 7.975908709970364 10.111941266089659
18.35176836983013 5.498424436638676 10.483889762267179
18.493136826160445 2.701083283413776 8.939587237568489
17.336781848800793 0.4613275390748197 9.00928865312558
19.38798126507883 11.965569024019763 8.23917577498424
10.170729771315795 9.54431873192322 11.365207823311948
11.273254985266858 12.556847472578887 10.088952821966036
19.951183707552758 10.634990584913314 8.660668331773017
9.282277365543012 7.426213883988789 11.234015150813345
11.423528066388064 5.998221700766483 11.379589756335097
12.797815192693157 4.004742384796715 12.240014379247807
12.482052775446899 2.567489280940092 12.22744434329844
12.872107502460944 1.670572599055632 11.057015455418167
11.47249345237138 13.966582412264966 9.559992119988507
19.158812806295675 8.499756515354509 9.593229106935713
17.673549532201633 6.689963730462391 10.944847702194288
17.318912297019526 4.42318280930696 10.357679806721478
17.264660418214532 3.404161237013945 9.33837445915142
16.111601961093495 1.1922537077012185 9.218789252281741
17.17525235710871 12.933746053100911 8.8391968153242
17.996829623650587 12.118241915619782 7.968240540670127
11.493719826590748 9.084030087103017 11.211876033443058
12.369066554341721 11.742777733331344 9.558406710048946
19.194109693728638 9.447406330879293 8.547651251795802
9.392911800868202 7.954323105484364 12.581613599439464
12.959163777786781 6.024723252596716 10.765809622591103
13.57149241210932 4.771658022889676 11.244773289688933
14.087618937517187 1.7663430519912648 10.235716484942461
12.532907630347466 13.800958157973346 8.568657933494972
17.7968273286859 8.046417042559154 10.18283173910142
16.23094001387795 6.31093444188465 11.297658035529974
16.072707042424483 4.88653521734453 11.024288064522963
16.02551052095945 2.616328451864226 9.212787343224836
14.960272167024414 0.5723235025811269 9.79536887422963
15.954052414567544 12.22046019750833 9.384974187017779
17.25858999679952 10.834650463310606 7.727541338774763
12.228562429537384 9.17527452619481 9.982503868881281
12.17149644808967 10.364362809444629 9.047055382757243
13.40743022803879 12.640181832091294 8.972314628463696
18.070740019488287 9.64050697075213 7.704326407516916
13.84257089953583 7.256592811318145 10.379422571606874
14.772008700226499 4.255650666102705 10.71535961344296
14.819928848085375 3.0474138627443352 9.92514600213934
16.22615603938533 8.530700523849926 10.01811897073783
15.345904732742758 7.335220116432961 10.648545908847208
14.712530630799312 13.059416049798768 9.533549747067983
16.056867664692607 10.807926092337292 8.666160644777921
13.302524501664848 8.253248912124375 9.57646905900322
13.17038228185602 9.950838332278614 7.981433416238609
15.46254928728347 9.494407243873006 9.129779808532149
14.15387095402006 9.005096405666464 8.586890147799913
