N=191, ave_E=-6.306828272251309 
1
24.305850619888005 0 0
0 18.710652531033226 0
0 0 20
C
191
C
2.352546267403526 0.34179310298014326 10.852701731254047
1.277216546618689 1.382294361296154 11.39712996274459
1.3647419147009057 18.140913161463263 10.181438039838596
3.36614155819891 18.212500118046997 11.51107076952373
3.275189065179289 1.4546690363514436 10.182179767674416
1.2645094479146115 2.6150569296947968 10.592012924957647
0.08355889631955718 17.824385052595773 10.756505336547168
3.028193011179987 16.792286748331453 11.90196133899991
4.776950351579689 -0.00965280693010751 11.27571482161989
4.69426184777083 1.3487293217207335 10.62042680666822
2.587625162843897 2.7530292814586357 9.999771776050519
0.44159112464718725 3.8198919781256193 10.694314310313182
23.331599209491035 0.08906925477610401 10.86571049637455
23.842605412923557 16.4727088031014 10.939483888044773
3.5418971640313197 15.564418886634927 11.219571730047193
5.724975749157801 17.853629802501782 10.628528756874847
6.060104817504817 2.312823759361017 10.120502245326769
3.1343852725382773 4.13499807740075 10.424838881961698
23.517660495986277 3.9641323984873544 9.866032541653762
1.6016315960124583 4.794398893899423 10.435451295612637
23.49561508947404 1.418170166459157 11.488933046423927
22.10607391538566 17.986269618294273 10.956600684255957
0.24893079970864498 15.286041798278214 10.723184639922717
22.315444512625376 16.45237032380017 10.732827101788352
2.695883421504878 14.397996807850316 11.152245664949845
4.908372085881424 15.433743689358192 10.764835510703278
5.9335928650283 16.45562597734057 11.034310939054759
6.487741953311127 18.339246078292216 9.543266821098118
6.755616732992912 1.0439384051859615 9.370501291339853
5.42574642217636 3.1437451276116715 11.416129606539002
7.016005310683772 3.5323279593761696 9.537275942424202
4.111504773308395 3.896306283062359 11.55808490311713
3.7799972767037424 5.083497186156417 9.379344969382302
22.072094336219056 3.355736820788278 10.33834200510783
23.381256062307468 5.137776789148944 8.898990611708978
1.4509255998289046 5.781891002529764 9.328964532534034
22.55534325824367 2.584072089103406 11.534235500396203
20.799124021703662 18.562744822775407 10.921682419985135
0.007468215661466789 14.433041860040941 9.5343660870683
22.39086556709889 16.030744479665866 9.288854173412485
21.41408634823745 15.616060287620579 11.561508262359364
2.4816759599918052 13.602326308968129 9.937980141728126
5.606703480041426 14.083695266634018 10.477273334355306
7.213393123567882 15.801202194415152 10.679251529647338
7.541935306396908 17.553286408073635 8.933224204131353
8.065240270243097 1.092279247065139 8.648628939126656
8.419036231866187 3.402607005378516 9.131208480307436
7.027550589728219 4.955684718716929 10.040395639058406
4.823690502321734 6.197660412421853 9.610878166132313
2.723980984821469 5.926655321162367 8.632082702789173
20.72997387669008 2.3784607284398818 10.174933657278348
21.155520709343083 4.6065252318353185 9.659489867372088
0.1744686110420871 6.096098990483404 8.726738585837047
21.966485415275645 5.456737282845468 8.787674380348882
20.590361070729447 1.3633610520000015 11.162344574714446
19.516309837687214 18.180186821125904 11.955536911140932
1.2081271662316573 13.609511199540044 9.116830371490035
22.925083857873407 14.689153271885724 8.925635757811062
20.509957316878857 14.495535439494592 11.091823374324353
3.591991522158909 12.866529898185245 9.247317414606666
5.071658790345832 13.04224163610418 9.59427487380746
7.107443920715791 14.328374469782341 10.72324169591009
7.9855413860604845 16.370922853332583 9.618010164553642
8.550117684259243 18.436335654275748 8.31913061206128
9.013630255580507 2.142014212405215 8.80581818433274
9.259508240451295 4.644302039295474 9.389215655197418
8.306159861587428 5.866537994580157 9.72596009265887
4.6182331470318205 7.499809564666579 8.888092918121188
3.2656854775869126 7.208709232588763 8.249351139506999
19.426937224957886 3.0163255838753353 9.74872543161975
19.698749552440095 4.444434848958977 9.494141615972005
0.0391088428229184 7.563556757839809 8.141971771275475
21.505913851879388 6.680657196857944 8.306920630763965
19.27665415057512 1.0472932251847757 11.907495769774862
18.426629942696394 17.25133389752782 11.679500044241827
1.5314119935716017 12.840465959209517 7.804314438016096
21.846997853628274 13.705833638769803 8.972421667454974
21.041040152923408 13.466318575720047 10.184975511055576
19.0549361812205 14.608173567731413 11.192641304008252
3.012977548691937 12.351893400319177 7.998304795076233
6.026003709085114 11.95807158584599 9.377690345748551
8.282194292876218 13.434922100772974 10.255154375521453
9.285928700075113 15.850673159707204 9.362285229158484
9.950304820919131 18.080309357915247 8.366715305528384
10.439508676345618 1.894490990072176 8.691135649717776
10.50173165393253 4.656407831483053 10.27084477204837
9.220084150745837 6.627893156720431 10.811735532321933
8.017187603567578 7.031070297459134 8.720633595188389
5.753632347038649 8.152867469957231 8.224531785000778
2.536339818035933 8.228589480750323 7.523142532253637
18.08073338252477 2.7522247233998014 10.460441818080977
18.524290850487105 5.23512831426791 10.199581843822461
23.23700083887843 8.428961858705158 8.341553615097933
1.0401081126515574 8.276226802094333 7.325329424039669
20.103077377501933 6.94423415906261 7.885162772120275
22.022777765311304 7.927759609356371 8.826586563735653
18.014427022033715 1.5152803241604726 11.308522014358001
18.38003562705807 15.884969785796587 10.92122597208617
17.10983617951334 17.816975634193486 11.692109417450737
0.6893187847501477 11.90590628658947 6.893301487669266
21.629752160787717 12.69459771207758 7.989860508945377
20.554048129903332 12.035103342316253 10.035488824144533
18.2257177814724 13.342304370744358 11.135642372624996
3.5995506417016943 11.301870290930124 7.174530449419095
5.774073567409975 10.773331778233498 8.473010609999864
7.338543948409686 12.03740475257757 10.141042400780197
9.469851071715805 12.643910554371013 11.136783492372409
9.610168747344419 14.613543525007817 9.984708995384672
10.345080446687353 16.765567936517137 8.910173585233622
10.94042795177089 0.46562955675678663 8.393588675579949
11.48713944976403 2.444060276213684 9.600551032418231
11.277282735511918 3.5078544258655784 10.555325925078328
10.45416510426941 5.83398145917616 11.136098820523962
9.453468928398001 8.031977943954226 10.477045110405825
6.823041162612482 7.154785131994326 7.883394036511785
8.509453996172171 8.21697016552855 9.307739705232162
6.3056668263175455 9.395198666060244 8.827784739470435
17.4791149679813 4.1277383442187086 10.825600137252998
18.011461708258086 6.542722266399168 9.639177935868144
23.161920066313595 10.00086248848979 7.662986757299048
0.40759453138514995 9.55395855278606 6.820383935809602
19.754750232268314 8.214294542216614 8.58615263295582
20.992379839982394 8.92064038591565 9.101197030950484
16.89735443339428 0.514728180063471 11.23389278287722
16.949125895214642 15.852750042138148 10.413541796462319
16.165383741976353 16.949343965676942 11.038533082120185
1.2968532433344966 10.705243713673067 6.3476180244565725
23.57592161992215 11.544435190342439 7.13784344953978
20.95149739923974 11.502916252376075 8.5955098148846
22.572114295171392 12.537821154520053 6.985275739310719
19.67130824709024 11.316202650768895 10.975657384037753
18.72260228569477 12.05710706969275 11.748081341061326
16.98203601695397 13.374655088970515 10.345359891554413
2.718244804075175 10.626995764788287 6.221296068417999
5.045457083377592 10.98435051747849 7.25429471976323
7.637457299333068 11.132725992049584 11.225106160822143
8.98516810450462 11.48869615645249 11.781516149660515
11.04411671051533 12.68963938915686 10.722785248011125
10.89043081704578 14.393188170149841 10.554413029280397
11.762014314424343 16.460902381354323 9.161790489538092
12.377924569132304 0.2025559111052064 8.914966288172753
12.624944928982227 1.495349737084416 9.729954011774815
12.352622178637002 3.5814060009650697 11.54821421730201
11.409919762344646 6.1339132192486225 12.214057589917246
10.850423386925444 8.255177317996921 10.19410446903488
8.904108092687292 9.058631448332019 11.542394506590206
7.508660596898282 9.257656659304619 9.625142162974967
15.954190205940147 4.4320858182884955 10.8001531668857
16.655559831427635 6.815635844216819 9.948706667353807
18.66426824420704 7.906972074394393 9.620805907934802
21.50965695287485 10.154832448167664 8.359697419081794
20.674994042587894 9.081514576377472 10.521434668580177
15.757969073885791 0.46426555018727433 10.313693818563717
16.345635930173444 14.6066580048764 10.014606332766881
15.143808840422462 17.755960196289788 10.332693462358137
19.522580747147146 9.87860708485202 10.858293218016371
17.699933620862982 11.184554499560544 12.312422112144215
15.949231812413691 12.253288261480632 10.024134682657774
7.608022914232385 9.68540088681657 11.042355833274016
9.796059892885323 10.227223962810228 11.963239469435965
11.872192735284296 11.367394996093802 11.10996717830821
12.267964900927932 13.220404469504677 9.493228720174077
12.240985406739858 15.006991126430385 9.557017314054438
12.726032961710342 17.568367194013646 9.312703576133405
13.829421356450778 1.8952955481310105 10.423583650239546
13.703128156629841 3.01116144377677 11.375163407606891
12.799582465686123 6.838986738575547 12.128930056760272
11.69774964538536 8.945151340731302 11.065862900070712
15.895661717647458 5.9426529290764005 10.83136279197743
14.891368275884306 3.8277691628411845 11.84131082442493
15.709308760944774 4.0221167106810265 9.343684977275657
16.50858235272917 8.234838838695687 10.584709758574206
17.945252571169515 9.202535076948196 10.649810640164091
15.09444365781347 1.6197961581335714 9.877557851102633
14.92029223812197 14.462062082116573 9.485697329841152
14.049024716801467 17.02933200524711 9.580752604800619
17.018154510975126 10.35617778005411 11.314969340930883
15.809497477199955 10.932652984535244 10.721815296225824
14.752946456604043 13.015597666899989 9.551197603342636
11.20757355593408 10.196837863099832 11.601732733455663
13.304658041567397 11.226559914492714 10.542317159957825
13.491278362626895 12.390830268236257 9.646309934289473
13.808494019067055 15.438851697499164 9.698402050758855
14.094306516506316 6.226231578836741 12.56152855300438
12.916250548661585 8.304554730026318 11.60897884385173
15.237483588711509 6.733533500910644 11.893802332805908
14.350927687351096 4.789627677504009 12.86038781485173
15.690301585760023 2.607815907165287 9.022859160290615
15.440218688731996 8.209860117566759 11.668431182691926
14.434880095392188 10.398239326943873 11.020046942212097
14.246412529685575 9.003397602060408 11.532980268674052
