N=125, ave_E=-6.28148848 
1
28.80692397190328 0 0
0 11.879775221216681 0
0 0 20
C
125
C
2.4339142905404914 0.6691865502336135 9.109245859959337
3.541580846953733 1.1153790277672908 8.329372294482564
2.613565791198869 11.349652131745108 9.996928034264563
1.4653102789092154 1.7768936191630427 9.353843886441094
3.990507950131874 2.479023974062612 8.382986790808541
1.58452485307454 10.289477231453288 10.175913509566854
3.9087250929756405 11.191817438156022 10.618450460322347
28.830545649560243 1.66057873997211 8.803614250092444
2.0263856178023727 3.177768593024135 9.644231590866113
3.621203184812074 3.4297029861404766 9.455682448651626
1.8722973814766621 9.060336288190106 10.851745971362412
0.32313302757763346 10.39406677250088 9.579894195274942
4.716413627299865 9.981470299292804 10.573472245026174
28.151451223846593 0.4481110612319038 8.78524041729749
28.091849698148724 2.883245205739731 8.371510390513897
0.919476683489592 4.36063781180068 9.699237166015681
3.675821112662802 4.8082202230352395 9.034939066132416
4.487485002495149 3.277736901510673 10.672064956648327
2.947812530044863 8.222182507007604 10.319542398102822
0.7423976411419054 8.03643034164866 11.26518619005775
28.010873434863704 10.610718233210209 10.433321053549193
29.016638378418737 11.182004743823297 8.388145374779363
5.946642122443966 9.855758517901888 11.297934504029836
4.181238593749845 8.816587060201181 9.951891857350745
27.351137262059176 11.807106636188498 9.988697484558308
26.77995357354428 2.6302535126287006 7.668493930040629
28.407804040272563 4.124657956806431 8.946953330540165
0.5358519962633589 5.485997038731315 10.658849707824196
3.6254954164838873 5.818856460654585 10.050310684119943
2.810296917080188 5.346730433812992 7.871823284755791
5.275584828518479 4.357549070243164 11.290631340205977
2.547191757675207 6.874849680068536 9.858863461022967
1.3290506478297157 6.6980667450016105 10.775758290623646
28.03913302728014 8.182575336420069 11.184213810201115
27.304959762932214 9.487604283796383 10.980652609015355
6.390729662394826 8.517489959456608 11.6685990488997
6.868463689544871 10.954637725864432 11.557950320806412
25.926173960865007 12.00035493971203 10.22431146030436
25.49617300673641 3.014944393842139 8.270889022274009
27.352289539018052 4.9833637491216365 9.481475368505741
27.849237784457358 5.695853268014107 10.679310158854538
2.2148059461177976 6.568909828796543 8.39840458110336
6.754359463692163 4.769468396263631 10.934689046219138
27.24265038638099 6.967226812188717 11.049684895636151
25.819415500625134 9.528138076851175 11.030151830488204
5.983918282063609 7.240247806322718 11.033571565929531
7.753786883973375 8.185485881349265 12.193963151276623
25.33001466926647 1.429422073717676 10.268072481629883
25.094834941959853 10.747763320162164 10.578572867379354
25.150547532921514 4.40155175766255 8.354179866836635
24.7397319901582 2.1016272748350007 9.123330533048218
26.07787122250105 5.369052531453658 8.87548665597808
7.908220803386748 3.796110893288463 10.746951366651743
7.033613784675793 6.197369858752991 11.025225092987977
25.757106124073907 7.090348802581406 10.752457720328469
25.078645450687645 8.288673608920755 11.209195267408141
8.222360309300354 6.81630614777838 11.770553534345527
8.753387145798419 9.209047314409295 12.433518517022854
23.58399820040544 10.716875904587 10.713101781944314
23.695192926936986 4.811867314028153 8.678359194351433
23.33640268886693 1.7223892104481004 8.861749752595099
25.254828597699802 6.379914484802206 9.595138100716813
9.34764518041481 4.001690403491618 11.153552114464421
23.686694884365277 8.313347902055222 11.611912586838287
9.62643859061489 6.554060109770022 11.444577396683592
10.131251126298524 8.853176767882529 12.342228969224564
23.12472941152139 9.6473041020952 11.631909344927436
22.567891571144497 11.327306274554 9.73894087410573
23.84052385837524 6.155505530873423 9.401778144237397
22.608077230085303 4.038921619034911 9.505761286300967
22.295637332686038 2.637024984504794 9.323761806880896
23.041967118950108 0.31444577033038434 8.691342596704967
10.189441112721768 2.7992195556000654 11.457618760654771
10.095789802889112 5.255149246632632 10.851108393568264
22.908331798644447 7.133294190006104 11.592495444925639
10.599075571602233 7.639301335778608 11.649355791839998
21.106948421909422 11.326712285792938 9.992754797793786
22.770058563579312 6.2500923011847505 10.445608916490933
21.878311425105075 5.003773202951687 10.448912728696964
20.922756950033072 2.1148969837570997 9.676226403808752
11.48563746376153 2.5449923658660283 10.828619285920176
11.559123926813854 5.111392086680689 10.375533320752439
11.923877198146094 7.518602819531046 11.056640289754114
20.39734746370953 0.7011728450167395 10.076045642356412
20.30081546147968 10.109771871681943 9.603368650423072
20.43491169256889 5.159968487560244 10.451231193402954
19.617976135649684 2.9436895020652813 9.670951896602627
12.065837719479633 3.672620629863916 10.052629148825933
12.10089574595344 1.2135071590720627 10.732808731945212
12.459253880163915 6.24686100232458 10.559619418407898
12.6212640205819 8.716048522504025 10.605640942821768
18.821119004738897 0.7121996523770727 10.103577410740023
18.783929265891167 10.132592919881901 9.400618911884404
19.527291938986135 4.386583240883818 9.620119557923836
18.478114961005442 2.0768460637235426 9.749547850135624
13.092199613674575 3.3323363484273854 9.001031519807338
13.089837445908879 0.8954321174115967 9.665097773220005
12.427191773783187 0.27961783331434337 11.834775006701403
13.90974011599719 6.240837956287423 10.217645874274638
13.130455208709263 9.637384489785484 11.57817892536616
13.104068066351 8.726193850542943 9.260293835554467
17.936199107246 11.519841791564257 9.435743652180125
17.91309595422053 9.028058938914059 9.796960453373085
18.429229611025125 5.065714350955111 8.815728228181232
17.485889271717205 2.072676262620895 8.687806938028334
13.546139121623828 1.936070727352125 8.78721111229758
13.949234408762669 4.335476447882143 8.505633573755311
13.928262968111124 11.612551557390633 10.038196706031155
13.38317835271477 11.070275457867755 11.335609555502149
14.635962669328872 5.253735553381308 9.368971868647666
15.196257340582392 7.154131315744119 10.729041226797985
14.481211873751807 8.890289185673609 8.92023302480365
17.042176221777982 0.7060566206101816 8.439209559928752
16.440918104636417 10.877633022880506 10.100853214710483
16.605578482059812 9.361179715892197 10.28917051045438
17.054044674454406 4.542125137855207 8.870328072007254
18.796373857047033 6.1014881929425515 7.890892656962546
16.77775746663988 3.249011605025771 8.318823280070315
14.682773920783216 1.5440856641528595 7.993310835349572
15.137462408755734 11.273443373701003 9.24620916246559
16.064382801399667 5.230771947878695 9.673849977485112
16.41182311142479 6.255366921382971 10.667196180765753
15.415593259704464 8.450167273277973 10.036457857501663
14.827038996034508 10.123718727791651 8.375509742131726
15.623723285401462 0.5165326266185013 8.39469503757378
