N=140, ave_E=-6.5169947142857145 
1
19.957532563453704 0 0
0 16.13148151701902 0
0 0 20
C
140
C
2.0246318059646877 15.873184234968509 12.722882062474135
3.4610951697518315 15.595287202874824 12.44876113633498
1.4353976315482555 1.0970762476020361 12.68470976779643
1.0989395773207584 14.71426633982283 12.543489143009403
4.511420193501273 0.539101207113562 12.612862650567997
3.8770101483742065 14.245356435086121 12.082835560403936
19.894446803020628 1.2151796632325875 12.702755874705922
2.055565981438041 2.4966693943890332 12.161204012216484
1.5196024529399792 13.632053639290575 11.681042644260263
19.63166597175763 14.942752644029886 12.475577313892074
4.6462133684348395 1.7172123389681917 11.729165596018898
2.8821471076186027 13.233880281005995 11.822263269047298
5.120983110586839 14.121160158886592 11.366837997789439
19.11706099460898 0.11898145216952268 12.253064880409962
19.45625921805744 2.591216007560282 12.579918667237902
3.5658522581774 2.7968440024577235 11.730852148066518
0.746004584208874 3.373092785208677 12.178125751094228
0.8480155161537113 13.39121062024148 10.401624260938913
19.08632639446126 13.97820296968277 11.536954880992287
5.884897584518157 1.939746126495469 10.984384211791763
3.219908388722494 11.969317313405357 11.046955292758305
5.079750848310744 13.416069233259208 10.115585033663265
6.4318537219521685 14.621703898878174 11.711513017920524
18.21220642571455 0.3377077261143381 11.117678041955
18.03161071354786 3.0066500510680725 12.34661230065105
3.9013184230364932 4.12235170722966 11.134655999234326
0.6982182682389405 4.804116510583435 11.885396534029713
0.32251372622541186 12.121614630407533 9.953001416273107
18.951413474332313 14.371843381661067 10.14037734876322
7.222950355234911 1.1186714619088696 11.21634133674052
6.249621492115273 3.3084216758069473 10.506021832686333
2.266976123882706 10.807495751586613 10.975951451553684
4.370959079319686 12.104370076665841 10.12902123164261
6.424130156850113 13.57683557805782 9.481160371751791
7.4913592106808 14.622026528508515 10.503098475803796
18.442236946040918 15.724613290196766 9.904316280498598
16.94526234352138 0.9246290970369513 11.303873388011784
17.585340327896468 4.3893761207808755 12.355832118511348
16.848967248902717 2.1289361417270682 12.041571253638935
5.223524912897865 4.399797057840869 10.532781791841831
3.1274850554211397 5.352780459940285 11.211337898999261
1.951557300483602 5.551407391859341 12.023637583532622
19.59686003496697 5.368234419233589 11.060054180328123
0.9238960507132186 10.835822633130498 10.356143574054869
18.985540855015817 12.128664087830469 9.345505368721891
18.618461958576212 13.454929972233707 9.108994553244568
8.365878330078777 2.240840229010629 11.152814542946995
7.858258489327333 16.13341729480106 10.348497871439012
7.729512446760492 3.507516420689996 10.619189475081349
4.877002274998619 10.921271090726147 9.424267349345548
7.021818342060424 12.270863097402993 9.116752692663603
8.747406480094321 13.659864313425915 10.158423455672711
17.366126790219493 15.539165778677114 8.82391103879591
15.803332245305688 0.3978733127283639 10.4657694571499
16.07621158804579 4.294764981683558 12.458543138211152
18.14922045294429 5.371460715536993 11.474664892033676
15.491376053806345 2.8358176618028414 12.28735810537815
5.492572409385784 6.137189880186852 10.086969867255387
3.833981708167401 6.4041981622565505 10.553245290019571
-0.02416577787978355 6.199134769212205 9.965594338228637
19.91733809287091 9.740301460346702 10.333206466207297
17.939007762453432 11.210960235808775 9.790361580481356
17.60256367849873 14.142195610784784 8.199718125973298
9.681039810945249 1.7534597779369334 10.504897464654587
9.201839496564164 0.4260695292719614 9.923149445030305
8.518553454189197 4.489084808037569 9.90622770615256
6.280795157979388 10.95963175377362 8.948041269500433
3.93221268344472 9.780662427102284 9.163976149996842
8.35468215431068 12.305223153034245 9.700412137941846
10.035126353686046 14.222514257258021 9.57150334310241
16.052961062609366 15.9711829851844 9.108825898039807
14.485795818064165 0.24066557275240674 11.049653776034493
15.269667824558937 5.214743372599154 11.61172535510325
17.310584977095402 6.497325205054301 11.014573493444086
14.121491018650882 3.041655365960004 11.352952052597402
6.9659172933501905 6.304118450924964 10.462171479448319
5.52901486384665 7.746498739287703 9.336004458853655
3.2066166720352336 7.388686347758704 9.662689590476838
19.25857985801643 7.444404484918487 9.760228517230619
18.480256045574297 10.053865198074519 10.515803834562504
0.057089320199061856 8.607855326370451 9.436972708104257
16.544195769126215 11.377792017657788 9.38159758254087
16.5430581897701 13.424715707352329 7.59329022805224
10.525482928770103 2.823525472886873 9.760172298829033
10.176525471898113 15.670927719708127 9.37777473123294
9.82036334577072 4.081539058991601 9.308907189288629
8.02051322906821 5.78107129421714 9.633231148045152
6.838009467151015 9.845269010577946 8.22630942992404
4.203914531763578 8.343976551715054 9.320375743212416
10.832070544009879 13.286710882974232 8.839652191240326
15.004751537311652 15.403532282082018 8.257285769198585
13.276728580305013 0.7335823482827433 10.472852975749884
15.80472927258513 6.432783147504709 11.034755899613888
14.328171225878009 4.393747752271986 10.879368237626885
17.95788758825846 7.6407730094251605 10.460709801007049
12.99991760364991 2.1500845139958797 10.630770465808311
6.694095699835952 8.355994505445233 8.603028938959824
2.276855102501616 6.860944929929428 8.636535106305793
17.600348392384184 8.94298685488652 10.932269753520433
0.6735447707307427 8.696465554343435 8.164244314571778
16.161769530145317 12.033714187621296 8.103865751267136
15.283897545276679 10.894412174000312 10.079717693450643
15.308205819938966 14.161730834901894 7.38415777414788
12.062831619665504 2.8690323822463837 9.718964210465622
11.406029223002243 0.09806617980863168 8.786638238543599
10.552525385393583 5.102968337167728 8.488905583737825
8.503086366452521 6.482064823539201 8.471702752852142
7.7781689111501935 9.963819268246517 7.085750498523058
12.311023494624616 13.100005115896254 9.156892631396857
10.35668211834841 11.88298162432627 8.56435067866784
13.672067342854467 15.1074066758741 8.772527419745213
12.788108310553975 16.10392894658795 9.320150869606067
14.887940099217758 7.1328571823803 9.975994742522268
13.880364110219233 4.739913214145698 9.604110016022982
7.733863188859326 7.577440812989344 7.845598414375566
1.6386511304342368 7.73904599482684 7.694314695704428
16.399783063497065 9.184910683197256 11.603573686873112
14.656572424209639 11.79677498709932 7.901142195143716
15.300921320553304 9.625993782317105 10.836080068404744
14.00799253096252 11.018366477977084 9.09954986177792
14.1642400534018 13.163401838258139 7.525265962131737
12.718536352037775 4.02212681256442 9.048840863546271
12.007309764073977 5.026198616628235 8.298718731168346
9.853273316967854 6.299682293507784 8.068279503062442
8.474606967484473 8.588497548550029 6.970390338466135
8.530308440869073 11.156435828281252 6.810730077958507
12.656927449014395 11.674304779422114 9.545249349561189
13.254356186301383 13.828373769352696 8.405477475782426
9.876324267078644 11.248804691447702 7.218144834260897
11.39046234760275 10.968407279718878 9.162120942744469
14.128057046864258 6.144078022794619 9.061939751116089
14.540818735341608 8.617985896763138 9.99595227508572
13.811291090017122 9.337772602052526 8.917964424651284
12.82904120984162 6.328912538016622 8.237609328643067
10.661932578906436 7.458390479393743 7.598293665793502
9.974874562876979 8.640182815330556 6.976237052231205
10.649718568977601 9.977160003461092 7.083782854467504
11.586365487245612 9.947445814506743 8.17627505251144
12.543768239379613 8.919789784465047 8.38923035772373
12.110989145741119 7.584312824115594 8.0065516981197
