N=138, ave_E=-5.728678333333333 
1
21.299999999999997 0 0
0 17.21658502723464 0
0 0 10
C
138
C
2.1866153999999995 0.6058085856458189 5.0
2.4329286 1.9566132385901351 5.0
1.4194469099999998 16.382561998760313 5.0
3.4566491999999998 17.029647347008925 5.0
0.6824072699999999 0.6038441732942114 5.0
1.4817749699999998 3.027002762903367 5.0
3.765307499999999 2.073927048965712 5.0
2.5652228999999998 15.470203508412068 5.0
-0.16810577699999998 16.459434050906914 5.0
4.8278367 0.70924927180645 5.0
4.1827662 15.431242376495435 5.0
-0.21548996999999998 1.6093581619078179 5.0
1.5945904199999996 4.362734295656339 5.0
0.16268705699999997 2.82975234824634 5.0
4.319256599999999 3.2874724777804003 5.0
1.81928838 14.227923599186925 5.0
19.810277999999997 -0.09052790305850464 5.0
20.714058299999998 15.137716818366112 5.0
5.9572479 1.7157910905461824 5.0
5.450648699999999 16.398780021855966 5.0
4.710580199999999 14.063109230721206 5.0
19.8088083 1.2352245526809817 5.0
2.6919578999999993 5.13598277898453 5.0
20.527512899999998 3.833307089483847 5.0
3.9711719999999993 4.611204050769389 5.0
5.6220072 3.083542028132806 5.0
0.26865050999999995 14.053536809446063 5.0
2.5012802999999995 13.050205883813911 5.0
18.749324999999995 -0.876866500314601 5.0
19.315862399999997 15.092265033894211 5.0
7.336763699999999 1.4184400072238075 5.0
6.572114999999999 15.475884981471054 5.0
3.8987945999999996 12.872806191693286 5.0
6.1023222 14.04615089446938 5.0
18.843726599999997 2.144756079767755 5.0
2.10149421 6.401849409696983 5.0
19.2366264 3.400103377028569 5.0
20.6401686 5.271924934359573 5.0
5.174685899999999 5.260045490690782 5.0
6.6306047999999995 4.251033091999641 5.0
20.768075099999997 12.801942727721187 5.0
1.5227753399999997 12.14523330844235 5.0
17.415305999999998 16.61884241167408 5.0
18.5986062 14.007895642538866 5.0
8.2552197 0.14963812093006013 5.0
7.7143275 2.9496658629610293 5.0
7.885238699999999 15.898999775100373 5.0
4.568147099999999 11.562073140399859 5.0
6.6394017 12.769575547869985 5.0
17.511731099999995 1.9793219142410576 5.0
21.718544999999995 6.413591120685557 5.0
2.8947338999999994 7.580031972865731 5.0
19.052061899999998 5.487631528165796 5.0
5.265338699999999 6.6566548681000555 5.0
7.369757399999999 5.604497707330665 5.0
19.2383517 12.806642855433624 5.0
1.6980764699999997 10.850115699768624 5.0
16.853859299999996 0.7332147581643607 5.0
16.606821899999996 15.44477461232684 5.0
17.2211565 14.135763219536138 5.0
9.709072499999998 0.41980748764558673 5.0
9.007919099999999 3.1946234347285234 5.0
8.9189277 14.9170862812421 5.0
4.0672137 10.24836161989672 5.0
5.9139662999999985 11.605200685893081 5.0
7.932269099999998 12.488480364130327 5.0
16.803293099999998 3.261251618783922 5.0
21.116564399999998 7.728008521174813 5.0
4.3362966 7.745862119848055 5.0
2.1951566999999996 8.70759777605441 5.0
17.5378662 4.598584293944427 5.0
18.617477999999995 6.751518251600118 5.0
6.6222552 6.831024441255888 5.0
8.750423399999999 5.644199152403468 5.0
18.441603899999997 11.657160339505277 5.0
21.916635 10.135265872852814 5.0
2.7577323 9.983811574368232 5.0
15.4949406 0.8069981549570774 5.0
15.189796799999998 15.55124197413526 5.0
16.482259499999998 12.91748322983896 5.0
9.775635 2.0647161759761414 5.0
11.108695499999998 1.4535773356058908 5.0
10.7074248 16.532776703122934 5.0
9.5277669 4.44086315850993 5.0
8.953817099999998 13.44654888772588 5.0
10.264597799999999 15.264706349526994 5.0
4.923984899999999 9.111912058833987 5.0
8.322378599999999 10.891263337983716 5.0
15.368099099999998 3.262973277286645 5.0
19.4839833 7.768674095009142 5.0
0.80936166 8.764360856889201 5.0
20.028006599999998 9.165731103629124 5.0
16.673405699999996 5.768296297279775 5.0
17.283373799999996 7.024487207206924 5.0
7.195629899999998 8.091054649644109 5.0
9.354874799999997 6.946323911183279 5.0
17.060235 11.686411317466545 5.0
19.076769899999995 10.49924169691358 5.0
20.640296399999997 10.715309839005377 5.0
14.753231999999999 2.017370567151246 5.0
14.6750397 16.910233113260027 5.0
13.5515925 15.133791436979902 5.0
14.666903099999997 13.974133919300458 5.0
15.064552799999998 12.46430827875209 5.0
12.1874553 2.31394346083039 5.0
12.144450599999997 16.628569782214466 5.0
10.8679629 4.589338987784802 5.0
10.365623699999999 12.845982752220854 5.0
11.106970199999997 14.169128961318917 5.0
6.348720599999999 9.246218638631445 5.0
9.705089399999999 11.435565673619738 5.0
9.178702499999998 9.363084817796315 5.0
14.636657099999997 4.482716676711138 5.0
18.371079599999998 9.126769971712491 5.0
15.336553799999999 5.715200349055784 5.0
17.1626028 8.445251453409409 5.0
8.579086199999999 8.164603900880456 5.0
16.052212499999996 10.577198393916902 5.0
13.369818299999999 1.6244364470746702 5.0
13.327090499999999 17.414059257497023 5.0
12.541120499999998 14.128084622613992 5.0
13.844786999999997 11.702594907392147 5.0
12.079698599999999 3.692819755661612 5.0
11.2153233 5.939050387579889 5.0
11.744181 12.11803110409932 5.0
10.665740699999999 9.48713031291754 5.0
13.205829599999998 4.574429425151217 5.0
14.664389699999997 6.974714059893188 5.0
16.025055 9.143297893338636 5.0
12.886968599999998 12.768904101053923 5.0
13.113323699999999 10.446438430635054 5.0
12.598119299999999 5.844359169930098 5.0
11.719281299999999 10.642776366285638 5.0
11.289937199999997 8.250308061146029 5.0
13.2887718 6.9443784370752 5.0
14.842329899999998 8.487604252576405 5.0
13.574724299999998 9.154867438476938 5.0
12.656971199999997 8.118463453007466 5.0
