N=95, ave_E=-7.269243263157895 
1
17.04 0 0
0 14.757072880486835 0
0 0 10
C
95
C
2.48627232 0.6153832204818934 10.0
3.9090611999999996 0.6165180393864028 10.0
1.77631776 1.843409273011774 10.0
1.7748693599999998 14.142706422326407 10.0
4.615283999999999 1.834171345388589 10.0
4.61487504 14.156666613271348 10.0
0.356507472 1.8425533627847057 10.0
2.48703912 3.071979861530944 10.0
2.48390376 12.917205304966377 10.0
0.356107032 14.140005877989276 10.0
6.02962104 1.8551706600975217 10.0
3.9053294399999996 3.0690874752463686 10.0
3.9037617599999996 12.922621150713516 10.0
6.0303026399999995 14.134604789315018 10.0
16.68575544 0.6125277268795193 10.0
16.68670968 3.0706517249717002 10.0
1.77771504 4.301568688078868 10.0
1.774716 11.683691097032243 10.0
16.685568 12.908011648561835 10.0
6.75646224 3.069751543525991 10.0
4.618692 4.302247513431371 10.0
4.61654496 11.691409046148738 10.0
6.75629184 12.920732245384814 10.0
15.26625528 0.6110387382258781 10.0
15.265709999999999 3.0699876566920787 10.0
0.357224856 4.3008751056534855 10.0
2.48710728 5.533356318485985 10.0
2.4845853599999996 10.456537187509602 10.0
0.35480688 11.6805478405087 10.0
15.26542032 12.906801568585635 10.0
8.163046079999999 3.0713157932513226 10.0
6.041838719999999 4.302896824638112 10.0
3.90742536 5.534935325284197 10.0
3.9046137599999997 10.459060646972162 10.0
6.041242319999999 11.689180728143786 10.0
8.1643752 12.917264333257899 10.0
14.555704319999998 1.84026601648823 10.0
14.555891759999998 14.137379119016552 10.0
14.555636159999999 4.298454945701086 10.0
16.68730608 5.529593264901461 10.0
1.77645408 6.763004173325431 10.0
1.77422184 9.223185307377152 10.0
16.68459672 10.448745453028703 10.0
14.55509088 11.676135475717436 10.0
8.86552008 1.8503893684842443 10.0
8.87405712 4.302896824638112 10.0
6.747124319999999 5.534846782846914 10.0
4.6161530399999995 6.766339271796421 10.0
4.613767439999999 9.229516091642882 10.0
6.7476014399999995 10.458101437234932 10.0
8.87577816 11.684045266781375 10.0
8.865826799999999 14.135549241979371 10.0
13.13397192 1.8398970896662181 10.0
13.134994319999999 14.136788836101331 10.0
13.133869679999998 4.29948794080272 10.0
15.26608488 5.528766868820154 10.0
0.356986296 6.760598770445911 10.0
2.48480688 7.994437633983416 10.0
0.35407586399999996 9.22005680792649 10.0
15.26507952 10.446959847210165 10.0
13.135369199999998 11.675737034749663 10.0
8.177921999999999 0.6150438078056422 10.0
10.2896892 1.8458737041828153 10.0
10.2933528 4.301731015880554 10.0
8.16461376 5.534891054065556 10.0
6.03517608 6.766457328379465 10.0
3.9047841599999997 7.996902065154457 10.0
6.0343751999999995 9.228984837019183 10.0
8.165806559999998 10.455710791428293 10.0
10.295568 11.679500088334185 10.0
10.29112056 14.135195072230239 10.0
12.423267599999999 0.6102300506320274 10.0
12.42290976 3.0701352274208835 10.0
12.425499839999999 12.906034200795848 10.0
12.4240344 5.528781625893034 10.0
14.556164399999998 6.756850473934268 10.0
16.6852272 7.988475776539699 10.0
14.55567024 9.215408329969135 10.0
12.425499839999999 10.445808795525487 10.0
11.000529839999999 0.610700801256915 10.0
11.00173968 3.071788019583498 10.0
11.003136959999999 5.5304639322014095 10.0
8.8738356 6.76418473915587 10.0
6.7446024 7.997359534413753 10.0
8.87514768 9.223775590292371 10.0
11.005590719999999 10.448243712550767 10.0
11.004500160000001 12.906521184200905 10.0
13.134585359999999 6.757485028068129 10.0
15.26606784 7.986262215607627 10.0
13.13567592 9.215496872406419 10.0
10.294272959999999 6.762030206515319 10.0
8.16379584 7.9959576124901055 10.0
10.29517608 9.220219135728174 10.0
12.42519312 7.987088611688933 10.0
11.004909119999999 7.988903731653233 10.0
