N=241, ave_E=-6.441613278008298 
1
28.19447279320635 0 0
0 20.92896830162226 0
0 0 20
C
241
C
4.163759742100714 1.3886077462570146 9.162958861038721
5.19782022626435 0.3220758931936649 9.398669191935646
4.843105564053022 2.758710098741735 9.25565457239506
2.7042051912256837 1.1545632795336331 9.42930302555402
6.547912555967036 0.9897350967773769 9.679819709366491
4.951654284306866 20.15698237684862 10.270882510236536
6.213385136275643 2.4696601175280297 9.681578318333472
4.421654584740172 4.043016238570784 8.505749671281599
1.743901447889075 2.190174674828166 8.95425168718318
2.2494762756750135 -0.11789999429226072 10.001077857108793
7.323232363307419 0.24279905416394998 10.831651853417306
4.238362317111537 18.880106020766647 9.906623536785482
6.217275973521105 19.885701089722993 11.068269853458478
6.9138768128228545 3.3779982707867373 10.521569382013556
3.025041374928696 4.263565706533281 8.267486520916474
5.447510477320986 5.173054953048577 8.185909756577178
2.227673489864027 3.1522793476537414 7.930968185686499
0.31162504944147185 2.1196440516516994 9.286855699228585
1.3738461730309626 19.795790241899223 9.279083782180962
7.739862087772629 1.350734685218399 11.897141970121517
8.565960140613575 20.38224086267898 10.476015736836604
4.911223410321408 17.79299262027548 10.590608966297921
3.574946372287392 18.67929256991258 8.661698576127723
6.141686591962519 18.267117468180434 11.207199961849945
7.290752330649644 4.65137948916234 9.999773082713936
7.653587001025417 2.818022794908532 11.627110399707714
2.3767066536016364 5.434122903643013 8.848054397306157
6.862365511029667 5.114663131487051 8.644225945100946
5.087579837642913 6.47469027863137 7.43889805086101
27.85512411866732 0.7723061379886534 9.260249647437814
27.68981992468075 3.3227457944704546 9.503788624703876
0.43786016247849463 20.690503636793576 8.516471513048028
0.3412179680852212 18.945718336392233 10.09263898203482
2.212214460431512 18.911666904965493 8.439773470359064
9.129877790950495 1.309736929212351 12.663101269223866
9.73913215353889 20.272007986634335 11.303696537747822
4.641825222782321 16.38135463729936 10.360458108909516
7.276232177161143 17.299906127089262 11.381699354831643
8.633655069790063 5.215938409098601 10.278824615248709
8.855883904346115 3.5998244058156317 12.13642624827392
1.269614026561758 5.176738451469663 9.669268055564604
2.6043347296975883 6.76290310111301 8.271627761387109
7.90386933601071 6.098094423011979 8.137009081430815
3.7979646520816543 7.189226185417056 7.471063576160301
6.079405001562327 7.62134659394065 7.428856960952764
26.99172477832096 0.18309979995262154 10.389503521525459
26.246065556359035 3.202655374355746 9.305009082113546
28.18601445136839 4.726033119094227 9.195691679553168
28.234790889300637 17.52192062283287 9.654688619935122
27.279731317903565 19.599225371610387 10.634404002507896
9.765127457454227 2.6581673350207415 12.783253972193709
9.958231401614897 0.21638460327047251 12.47538394432906
11.041096518183572 19.64081123162571 10.832729710526099
5.55307058345875 15.289867082433156 10.817866628289035
3.6375662963611037 15.912043452103783 9.48052960288252
7.17050290418662 15.566296895760985 10.973475157206064
8.511150085503582 17.72731751774499 11.910303172713114
9.128468067310834 5.975785532257298 9.00825800126594
9.385855409440016 4.738862576663121 11.389981835772904
1.8540910864594842 7.951019702627804 8.784801203816365
7.477512518431843 7.42691647841858 7.695881877326247
3.969753574810661 8.711578410708757 7.630983533512509
5.453628677917111 8.881019338078692 7.784833453462557
25.48574520854464 0.27337209105895977 10.532518141066049
25.415033470779274 2.645902959595991 10.275591043922326
25.700812647011215 3.642728790833958 8.059119722990026
27.393665182460914 5.650591222786692 8.297496331998179
0.6570242578419255 16.3366503610071 10.237185293256324
27.041121494654657 17.274435572666185 8.866491426798692
25.975595978853807 19.00879824685332 10.305090291110385
11.276999672044331 2.8337404501030505 12.657655254358378
11.413883837455348 0.32601472502803025 12.596784692372243
11.010279959420599 18.29727611150307 10.298055855242463
12.066867827346007 20.16227740582893 11.829860994804129
4.974012501231877 13.779549013914888 10.212961872969206
3.5900868041773446 14.453692011878443 9.595576666915964
8.84299903027962 15.492019987258526 11.34584642363384
7.341079464585518 14.44783190075399 9.712212151951842
9.651249981842467 16.772600770729888 11.746865997426944
10.059421364469715 7.07652369111282 9.065441157353572
10.809027812622691 5.117907121573802 11.569700326334022
0.4219528409285676 8.043358310774563 8.634865607050887
2.8940498543314592 9.12354422275789 8.614102675376213
8.310264466851986 8.661327957816562 8.067005098680681
6.092289875628821 9.821713676331706 8.700841807973418
24.804312995605635 19.898551476260188 10.55861362896318
24.77115629560082 1.4223871010958329 10.061437855201287
24.215978931829795 3.518201429439305 7.816715332154271
26.1341616938428 5.074814375840762 7.7590216121730045
27.868883021390406 7.020161979476551 7.834528339110143
0.18854405207582506 14.995417427397634 9.980541842720182
26.361606505865595 15.8735341504288 8.809762105283188
25.85737655443189 18.086667903483846 9.234607994112807
11.742377639968995 3.9620839181484118 11.794064792927848
12.076764087296421 1.573538203066979 12.781552092548239
10.921805703795517 17.163093461301557 11.172481617082457
13.493536345155041 19.811193962569217 12.20291301309009
4.198044221017253 12.410292191749555 10.688523775233683
6.277583950825774 13.464693614785284 9.473665354979143
2.397954008298597 13.863495105772696 10.325059012283845
11.179926102217323 7.176396727848162 10.043397930959362
9.672875142474856 8.473030030006868 8.62624275018053
11.29887858293186 6.496142471140533 11.306873379752687
27.8788638647592 9.176494512560994 9.18899761961434
2.9456175450702333 10.284474094448877 9.560347758254839
7.616398491411177 9.919996111476125 8.71434338649411
5.431101294155339 11.076635544665278 8.970419543815098
23.40764339684857 19.72475732348352 9.738250910527459
23.90499389692073 1.207852618623224 8.892813831981886
23.412351873805036 2.314367172729993 8.083626789884725
23.634270569160364 4.885197923028064 7.7022922906575
24.85359693404816 5.855527680396177 7.688677253493779
26.985127271687354 14.788492717799494 9.477069114270073
1.1107663668448333 13.895453640369274 9.713063091774575
24.81494231184867 15.958715051416402 8.6733280870384
24.59386945067714 17.46662628857998 8.926964883534222
12.747510595046801 3.7420995323300597 10.775376366473925
13.546711120843028 1.5508658517058316 12.84769848143532
12.149844160776412 16.70332588565152 11.809722085666124
14.140768662595885 18.419710576067562 12.141475157888802
14.196170801634537 21.04010112330387 12.872035360365473
4.263483592370284 11.20836247115569 9.835825343534129
2.8038219024986404 12.750680932207139 11.15222924930142
6.477623735293573 12.19168911783911 8.766080527716248
11.358848226563008 8.657874678046795 10.075506726937135
10.177189677326938 9.54578615824312 9.587691291225308
12.122890244786108 7.224407781132083 12.22515090712417
26.426171848562035 8.967790840657218 9.274488707138207
0.37400813994372023 10.513813729098054 9.61492136555275
1.7149823771450836 10.624632616255143 10.282114915896607
7.829999817292509 11.531338309986324 8.53042692614084
8.623307698274955 9.77736519250057 9.890909514725685
23.375332531027556 20.809589466429806 8.706174364195874
23.387146015127907 18.22400379347909 9.052506872048035
21.845669604104938 19.675741679721117 10.289035893121497
21.974461955824307 2.3662082272131113 7.823749768022196
22.352634419399582 5.2603078218980395 8.232200882933832
24.89433794723434 7.222796250572857 8.280364076900497
26.16241255558159 13.643008424715106 9.830549516633184
0.723250254985888 12.823639315706593 8.870632667269327
23.975874801522853 14.790690259471166 9.049273300721651
14.15917965332985 3.9283882791828 10.927694594743052
14.688023379512023 2.667187720358741 12.96467434240029
12.286841104078603 15.334215566264294 12.227817185235395
13.486459532483947 17.29000672508259 11.3830041292265
15.600763047246492 18.227394286343955 12.527801837409388
15.650103374634604 0.4035921318316535 13.005859829820547
1.878324235825245 11.619784130028979 11.304944582821161
12.58454654230207 9.30248690173676 10.63644625808245
10.779480005135412 10.877035973972706 9.944235076950257
13.047979091604 8.25273170966399 11.826740882120781
25.92760898615977 7.615612056626006 9.251740249210489
25.456451151312496 9.999337830307574 8.917264169555072
28.009291495900573 11.800819705838013 9.281920248256736
9.104559154382194 12.266468321580804 8.587780270193015
22.088001097762547 17.531422374441807 9.061243187561423
21.191529640829756 18.44202085627709 9.823288163479202
21.094935377040233 20.166442270520953 11.500944388657231
21.091777596087393 3.077835007404871 8.670207974355048
21.92077967962604 6.601666329317312 8.354339112156715
21.485485214171728 4.423190947769753 9.087565592744618
23.932201563166174 8.194611964690386 7.86232570665274
26.640816369936715 12.16431402730059 9.706766137086355
24.680088148478767 13.630346398892625 9.599774636708112
22.46482022664375 14.928361012959236 9.188827431649795
14.83353505359776 3.914344941452411 12.248580116910073
15.087510864518963 3.896408815617921 9.830833163240765
15.975834118814515 1.8132606988905906 12.89943562265746
13.039605333184419 14.377322206545823 11.384422362264385
14.24545474007706 16.40083950678817 10.546870659409468
16.558754843814054 17.561581017764443 11.67850716500076
16.21419019180828 19.07746619185094 13.48000349904714
16.673393570191234 20.371839165433077 13.143428434495647
13.957814728640772 9.329422483940947 9.727358880796483
12.121029409581757 10.766447305466935 10.628957987642401
10.08803875435482 12.116428547826475 9.640109184305636
14.43624673746869 7.83961480435827 11.499866531548438
25.434966963044072 11.351349182592374 9.475197046660064
24.226157136508146 9.618137601661827 8.071543444401922
21.99780697929708 16.232528743706524 9.713346738382153
20.29869527088729 17.766622120215438 10.968993540806341
20.810847869175888 0.6454326392473891 11.784250620305667
20.03225750299149 19.178406605969666 11.78061994372867
19.946602694645733 2.432741417443968 9.219971829161807
20.624003097975308 6.939878457071528 9.303534119754147
22.563077964328073 7.771972378807426 7.672849772790954
20.627301851292113 5.353797523301386 9.963693234230078
24.284886223336393 12.252571486628527 9.340408178739224
21.4573753247969 13.77220294604102 9.204995288281712
16.29288096537412 4.352304532132159 12.202629366482512
16.519282581903568 4.230246788997097 10.104665598196107
17.17810282766242 2.1391707790771126 12.088887076843928
13.962748761379581 14.965363428916504 10.42166904682475
12.996214039555674 12.915475628614113 11.66177201515369
16.964670668617845 16.170181347135994 11.997496139882447
17.717857814815563 18.37213903111797 11.170212444221836
17.915895791715045 20.601785740163 12.423590073785409
14.434470485682716 10.54035166090451 9.103733449376534
14.893532891701703 8.39308137109467 10.271846908702301
13.11093734935123 11.846926223006484 10.6754193019636
23.171063575640776 10.647382404799007 7.779444167918587
21.074043272700468 16.297115539885333 10.877205498594254
18.8075177993274 17.287851041347526 11.054257711044148
19.535301725538435 1.373595397294261 11.409893827624849
18.518552647669832 19.481876646343192 11.749645734181208
19.540263952750042 2.532070301003467 10.579319831316337
18.993798681072118 7.134643436086424 9.585081742435598
20.709009433446823 8.486340853846698 8.918455485306897
21.591158098200665 8.837570799884523 7.935846907336835
19.236835036549554 5.029356656689639 10.537113216108803
23.19872235345091 11.888344651275396 8.534284520003897
20.331429053800207 13.970442133793986 10.084867064987197
21.792212883689018 12.433795423152278 8.684333575412406
17.317975607189517 3.495598143673553 11.361163340443024
17.00380459685482 5.566645130928885 9.748745835007828
18.228769856301255 1.0699453677933444 12.00668628996796
14.648748478911086 14.194110018033424 9.38840118474134
16.266744689094818 14.944601892361295 11.643334985661149
18.44471132342442 16.11442657558047 11.892773812364823
14.276947966187073 11.763231278768298 9.816821020826435
15.576656773008299 10.525701383093374 8.238214191014478
16.090501039664485 7.903113294185391 9.54122997690411
21.783275235813573 10.211306421266405 7.581685753115536
20.4381169388497 15.004249452020918 11.174977707229136
18.782481107487033 3.710831653687436 10.999797562389258
18.512772780747223 8.495863534423936 9.63880440991078
18.320345503933588 5.995835483890253 10.180115595811731
19.619744171554093 9.365901675690676 9.295251638812879
19.10513865413249 13.032531348325085 10.303048035535827
20.737119322821652 11.361018365947723 8.092022729469019
16.12907107844559 6.480341100072808 9.167497206759965
15.221321832395521 12.879875453533053 9.618722230094292
16.9910043062067 13.680471277975009 11.419821458890063
19.194797077614883 14.923882213742688 11.891639225934512
16.905039358660215 10.222315058593058 8.73136218294876
17.159353503254938 8.841045008622592 9.284643255689481
19.455342200696904 10.710566960101605 8.734255378346052
17.874224360926686 12.492773255826249 9.495109038512005
18.474541075639635 13.695540135152177 11.542526981328095
16.59337765640411 12.792036573571144 10.234008451251462
18.05497912600393 11.255682868485657 8.765740151787156
