N=94, ave_E=-6.541647765957447 
1
17.03079566805806 0 0
0 14.749101695200311 0
0 0 20
C
94
C
2.5925809937528106 0.5873446273469449 11.397424758636468
4.047589990857683 0.48194017208219586 11.179502535193787
1.952955400847554 1.883711021205898 11.100885024204967
1.7873138821800214 14.171718611138305 11.43160628515335
4.792738393722227 1.5776524119287965 10.499530027869447
4.72667593732583 13.951411279117098 11.33313950174859
0.572786532226396 1.9503179644614226 10.53491090619394
2.8698593780244637 3.0531525455166357 11.073959576124125
2.3993666168986922 12.826998762281807 11.32672296957788
0.46823958685888795 14.189048805630165 10.881403643412387
6.037945018992293 1.329435354769762 9.81122202548223
4.254786650955277 2.902092245954394 10.63253814333337
3.833155242601164 12.722486627669618 11.16762895229845
6.144097968391298 13.742328013485938 10.774781267715884
16.931727529656968 0.6087588480982062 10.329282038779251
16.98503392009799 3.242766996910131 9.979910857222539
1.3108041409447244 11.819531872787758 10.669658081778891
0.08249530082854976 12.851202038163631 10.379295009156579
6.8426160527167 0.16015754548784114 10.196813631628757
6.69747961203351 2.402982644588816 9.100426176702324
5.0660996949902275 4.0093810557215575 10.354948167462098
4.688152277524683 11.876035681382072 10.251264203694241
6.011632439685143 12.489819548427832 10.01619124940273
15.728944616396035 0.5183512794371369 9.492014541886899
0.6890728050478964 4.590510411614145 9.508325726470392
15.555656270473545 3.08955332850039 9.492314379838806
1.7555855098504292 10.719425875546158 9.820217164039303
15.86570190561054 12.72127720133061 9.474983746218843
8.32456776856844 0.272986698545954 10.229076195253459
6.117717265901477 3.8342207239893584 9.313431057733812
8.164546412471367 2.5564175495239843 9.223059899030417
5.106224249584172 5.1447816533197726 11.192455534715972
4.151375659658829 10.770590509326807 9.441941603919197
14.895951369475647 1.7301433743554726 9.375857319319902
15.366478192192755 14.010584675118242 8.840946413125959
1.733547660255962 5.588006908362237 10.044975692785368
16.886425613179934 5.5160460411913546 8.583625482803296
14.784093103527841 4.229939122471583 9.052871877530603
1.3909783146316745 9.34711045741794 9.918623979853681
2.8254090013308324 10.953715355974415 8.942651446411265
15.032657566303149 11.537071826222977 9.464549385492635
8.974241530917851 1.5576821282334952 9.85685736176178
9.178151247451511 13.861117278539082 10.524896318600398
7.325081463197117 4.797292817380853 9.28236784591672
8.437822559761027 3.9111225402281327 9.458972399587253
3.91115628676087 6.011202883302619 11.40947824430295
6.346866621615198 6.021011035929928 11.206427983274622
4.651008112172648 9.44989694713179 9.719591547380844
13.394499392583981 1.6896275919987571 9.302217118332663
14.278755334465224 13.931116515184502 7.874088953421378
1.7251174164002732 6.891709505404383 9.287764929050962
2.5372820002186263 5.470353324139624 11.256081148109669
15.454799898527305 5.324174977238494 8.486777824338809
0.5059610961840698 6.826828207047197 8.456913964329328
13.348175628366862 4.225971614115574 9.291722790016074
2.308660599170615 8.200382549717812 9.861834671763361
0.08219692128844538 9.087629511294281 9.31540998821637
15.224151832794794 10.451744428879968 8.449477983122147
13.822755780452969 11.398164786457581 10.27699029996747
10.492417749155551 1.6630644598457014 10.008035657110984
10.687454421146152 13.90459763033653 10.350750436135463
7.472227537769139 5.785276143535541 10.327542978658215
9.276180507316854 4.137108276401992 10.56477476620342
4.334405620703449 7.427072398736764 11.279228637996535
5.878911449043967 7.356291459701497 11.326183261264454
3.766632954721729 8.337785181110299 10.252643458272988
6.0869937105163 9.271934286077505 9.780758489568942
12.590713960234313 0.458167569969872 9.1616530864808
12.672410687053986 2.9528144066841877 9.554440803472986
12.952907891706902 14.262499332072261 8.204810214369761
12.586132676199604 5.481960867173747 9.449437552716756
16.499213442870964 9.868476453241575 8.291463382469566
14.106693205830831 9.59970357304994 8.07749901999199
12.78551220108556 10.345624642183001 10.036160456999433
11.289424924829332 0.3975163139788693 9.809962706084239
11.299422001886482 2.9281981559548984 10.003178282290165
11.47151819211221 12.834181574807369 10.889919041246415
8.689639904508933 6.746961821367687 10.414615919890682
10.677338128519326 4.147063920046252 10.428828238810858
6.719636677197653 8.320336993804876 10.666000058765679
11.205412009798803 5.414557472426682 10.03100324422671
13.147774255740824 6.740501714825189 9.052332169217173
13.880881886068051 9.198336268618455 6.701182853169449
13.105248358957683 9.310517936112149 9.108761671765212
11.444916089278701 10.355447543912005 10.683030854433738
10.93865865725001 11.573133379867743 11.288283744143989
10.354076595943916 6.63196307545021 10.056849275680698
8.170507190955187 8.096947099529372 10.665520318042638
12.396068996544077 7.974500057255818 9.241589884457987
10.563521321069693 9.170312975397575 10.54756406776422
9.673934740144349 11.522824193985414 11.992123352439755
11.083386358837165 7.939810170068708 9.921322521420802
9.109414956135227 9.24764251558551 10.915465234748503
8.711013553072346 10.389901445471994 11.764186541403525
