N=140, ave_E=-6.654679928571428 
1
21.173062128367093 0 0
0 17.11398236713331 0
0 0 20
C
140
C
2.53689278503456 0.7667868457646979 10.511672394364112
3.9554456015108985 0.6553200558110851 10.802131021308188
2.009031407724666 1.974833767290614 9.889005440504533
1.7158077876151228 16.700902174737813 10.61604664429268
4.945900274813782 1.7555694252029022 10.394713592015584
4.5561888932790575 16.495174992702506 11.179906163621073
0.675878020036883 1.9658489265478691 9.443297572095279
2.9387575042309675 3.2359117859775663 9.711330645911843
2.310976212124883 15.31057936121427 10.706822420516264
0.3059676862046072 16.732237876452032 10.255448521396609
6.351368138894791 0.8969506614544037 10.61902876571921
4.388794664092187 3.147432497139487 10.186621158872285
5.998497885463425 16.566386273332146 10.968354469622998
0.13626749882133649 3.130078919019214 8.696812936606154
20.92154732334422 0.9309150708602164 9.986938308151796
2.309430578589512 4.400740767831761 9.05681463521692
1.8278619843170798 14.241349084862883 9.869740936089144
20.879751698702822 15.501639860360948 9.759163873593394
7.831259316357008 1.1569120536111588 10.212386687997508
5.087209291458505 4.399303193312921 10.789725396173814
6.785119489656519 15.448535173075731 10.536304717347253
19.901937343490577 3.087208393189545 8.338421583565712
0.8473671194393795 4.356295755624315 8.654645739635011
19.491052899827483 1.1464759471636807 9.890198289075148
3.006172534047688 5.744410865422498 8.765163159702233
2.5526667163201937 12.889070654141477 9.852265704529678
0.5687846717916023 14.552669538103405 9.160055679003406
19.438628397997647 15.132337234860577 9.924313758194653
8.481971034748115 2.4049423721414085 10.584794011742638
8.694040425025838 17.076263149996148 10.131213342767342
6.329941000020883 4.373803359585893 11.68943143055808
5.280095887447929 5.752505779082153 10.094354321935423
6.1576769665444875 14.09899497953307 10.480956543670843
8.011463248131541 15.781932663569856 9.860913856666617
18.939600496694162 2.0493309325347453 8.928165916876392
19.099435942701202 4.391002911864862 8.324763467432202
0.0925002386345463 5.588998791546561 8.580390916114403
2.133800028234707 6.864983088875286 8.350409711700365
4.309586238669967 6.3553115799996895 9.205443567115204
1.9071466327629631 11.552947822774644 9.550176804022133
3.990804615265272 12.825817375312552 10.211730621283671
0.02985973432777226 13.662023667753052 8.191820494237472
18.992893094071263 13.66652464511561 9.500435018627606
18.195028593888004 16.089436698742507 9.663855272801477
9.59857481221181 2.3561846363774457 11.57670724063523
8.266492781467722 3.664497246397686 9.926639812907347
10.058369029391429 -0.03234200387740853 10.877697978256467
7.38194576493093 5.4291199682728015 11.241337865007601
6.576840077499771 6.367993040933735 10.363878456465258
6.901677196673179 12.77550226715318 10.509883121508192
4.698874158962124 13.993333252398386 10.52240803149962
8.667362366744097 14.693894120596989 9.237948690664386
17.581941406899006 2.728259727021291 9.128862688881899
17.74321662113078 4.164721837006626 8.869656694487862
19.792197362479246 5.539727636311584 8.689178705754234
0.7678770922908508 6.83588931885116 8.566434587838238
2.83589876841136 8.11291756910428 8.335439462139181
4.1720672001462225 7.916038315952779 8.945939360578514
0.8478922113801629 11.422607733066558 8.415897098226978
2.700687593659608 10.341979544458658 9.464530276652177
4.736879805482543 11.521629235042791 10.232605471269384
20.028763985639493 12.916127860263916 8.715242447022113
0.8384469083646984 12.65079267764388 7.6376826907595685
17.60008672114302 13.852314037693208 8.90902069731807
17.288715669483253 15.262865578374702 8.802618604819457
17.692443618146953 17.13948220086034 10.631971172710355
10.327499822105104 1.1340426389739584 11.746389949804815
10.390489681936995 3.5551046711069696 11.730525063815673
8.524253639818463 4.869937708409088 10.613720589579987
11.306965676163365 16.207249353357852 10.67676263653684
7.130071017851876 7.710858781353217 10.063996325813346
6.126404353780891 11.51894233981115 10.51614557650391
8.32344831859303 12.721490538802508 10.676345139537126
9.204078318636075 13.674020569392413 10.080219066373672
16.569953729411573 2.3015054627144544 10.027853014123796
17.093097748479266 5.150726817106644 9.657831387519884
19.06153616149143 6.6568770632909455 9.181348025988836
21.185342504401547 7.978709719381221 8.935442293157127
2.1326143367555184 9.30988660984395 8.589337280393991
4.872133326358552 9.01651872410655 9.708109954771189
1.0223434221744179 9.982312091030986 7.7245817091286675
20.462430644152708 11.400753177583729 8.843056171363209
4.0901909688958265 10.29320469471233 9.890735070931921
16.60073936174622 12.693971255156159 8.72180311416048
16.038531043051687 15.708582135144324 8.445062245778445
16.483991097170403 0.8879812232957891 10.423819097138516
11.765362471242511 1.6488568995508792 12.119334055406721
11.888589692829608 3.1628521952522743 11.951500261521584
9.804271110788896 4.83076380277072 11.364618764780378
11.451344786816701 14.838130763987188 10.132286906480896
12.522998153381872 16.529454299383872 11.415076259317274
8.567361994311819 7.917338978612681 10.44236789241154
6.321344736796766 8.988349109130251 10.080517278516322
6.848088176426282 10.243248980182669 10.681414745962229
8.95764504852401 11.536757995455337 11.272530855129116
10.493221379383833 13.808040165309434 10.620221614289825
15.607045209937695 3.2767628618879137 10.610261328725212
16.036773678895035 4.697942185619398 10.606324928442191
17.680226761298886 6.542709686919799 9.650793580953273
19.747437509139882 7.9435404856167615 9.201686094117775
20.76867781477741 9.559408472756754 7.471936381872997
19.539560385163572 10.247236538074208 8.250806856054243
17.143553155531166 11.32911404739491 8.5139492507313
15.131350023099673 12.794207849880458 9.277670548065775
14.978395822284348 15.390587228780618 9.29967860419357
15.156080159665605 0.4069978830622175 10.740580035064596
12.883554228365837 0.774344380378024 11.744123537520654
13.0366142944918 3.793433989551668 11.243663919720294
13.098968962459843 14.178729023381543 10.400200695440397
13.558720833515205 15.532889992163334 11.208295959601646
8.946084556601921 9.036353829670059 11.262749496850091
9.797961538274642 7.141459474016325 10.094294679506898
8.207589322626605 10.291065446916438 11.211099153742587
10.45396652219784 11.53323251508771 11.417640883744092
11.163200584311753 12.745741051816735 11.247958174574503
14.285888479251845 2.8495807480218986 11.035332916862874
15.455234354477303 5.5921306503197465 11.465414468997107
16.90683832093602 7.789155250682851 9.957236378743552
18.991665056467816 9.163544946622594 9.17693448627757
18.36663626243842 11.092376329310355 7.694044785720994
16.66269174153382 10.260106252814294 9.293654718911977
14.524699446997698 11.534824115447853 9.812066707700044
14.287434112787215 14.101870128570747 9.351686801872262
14.748646925129435 16.103641304107228 10.571493750180313
14.14019663874655 1.3630397028338592 11.254817053855522
12.857236112140276 5.0488986220222 10.453998165975008
12.607986824765138 12.754178245123734 10.924338357367407
10.406898805086481 9.028515625745912 11.374161553345271
10.98119694225631 7.770021818396397 10.82521264114953
11.146092750112032 10.268868611786266 11.272590497557648
14.701536861893821 6.67087630086726 11.006525623882588
15.43880405826569 7.798328345231636 10.406880647435827
17.54001874388484 9.11079965296709 9.585186909569604
15.253200995648424 10.235462118205623 9.68926294735552
13.24277640043571 11.528765765689885 10.533680450491904
13.269306247282556 6.44789822460588 10.822051592437408
12.467418865294908 7.679745561409769 10.539942905487617
12.552979209355641 10.258891160066227 10.786445062604635
14.631919833615747 9.013677803033607 10.148986786469465
13.215505496414375 8.967812330289691 10.503799593798067
