N=175, ave_E=-6.225508 
1
25.56 0 0
0 19.676097173982445 0
0 0 10
C
175
C
2.5121390399999997 0.5359021178500206 5.0
4.09775364 0.8558216846309534 5.0
1.7992169639999998 1.7174025629047316 5.0
1.6480448999999997 19.068912491290522 5.0
4.11970968 2.6570208101802413 5.0
5.5740225599999995 0.13475608023739705 5.0
0.37622786399999997 1.7536419986797722 5.0
2.5891768799999997 2.8740678381064417 5.0
0.23635587599999996 19.063324479693108 5.0
5.70215484 2.209369923374967 5.0
4.6984392 4.122103005754974 5.0
7.18228332 0.7020549528259981 5.0
5.969844719999999 18.460389833990764 5.0
25.244129519999998 2.976560628285716 5.0
1.930574916 4.125743083732162 5.0
25.07159952 17.842757143699455 5.0
6.73835724 3.125685768767329 5.0
6.112674 4.271385555013979 5.0
3.9303356399999996 5.273685945056645 5.0
8.0830944 19.17059856148566 5.0
8.44640424 1.6775269843719387 5.0
5.423653079999999 17.183234042524738 5.0
7.504185959999999 17.78738860625187 5.0
23.78559924 3.0397996046028957 5.0
0.501579216 4.179104659268002 5.0
0.26488850399999997 16.616700176594264 5.0
23.62009824 17.813695548173484 5.0
8.12956248 2.994485552811214 5.0
6.8276894399999986 5.415648986166928 5.0
4.6477026 6.488862030424627 5.0
9.4982238 19.439885627408785 5.0
9.7699266 1.1128367687466643 5.0
4.19587848 16.81342179613974 5.0
6.5026429199999995 16.43156777828426 5.0
8.57241504 16.7667894458374 5.0
25.38220464 5.357643851698027 5.0
25.176778919999997 15.361463557380052 5.0
1.656426024 16.615617991249692 5.0
23.01082452 16.473812358916803 5.0
22.88049408 19.097442832192794 5.0
8.98134948 4.153132210998344 5.0
8.26564392 5.401521548396008 5.0
6.1370838 6.5615652094824926 5.0
4.0264668 7.672162838370757 5.0
10.45396332 18.42721593415543 5.0
11.049357959999998 1.6688832748834082 5.0
3.78868212 15.47879212482851 5.0
3.3416377199999996 17.86235453648474 5.0
6.89166612 15.163836837364574 5.0
8.26589952 15.20700619456429 5.0
9.80522496 17.225006396825105 5.0
24.034706999999997 5.248362807993729 5.0
0.454536036 6.61565480061377 5.0
0.32411358 14.150773622167739 5.0
23.8266486 15.302140124400495 5.0
2.3960864159999997 15.418917761128082 5.0
21.69458676 15.82676390335039 5.0
23.68333368 0.6345580690803686 5.0
21.39348996 19.20290671304534 5.0
10.463573879999998 4.182587328467797 5.0
8.96895288 6.624115522398582 5.0
6.88256676 7.780263316244617 5.0
2.58720876 7.864752477509697 5.0
4.87643904 8.697051387969154 5.0
12.004228439999999 18.120583635796088 5.0
12.3297606 0.9351753845336247 5.0
11.34437148 3.0496376531898868 5.0
4.60013544 14.234633148323251 5.0
6.069784319999999 14.07098704812724 5.0
8.930024999999999 13.946535733501802 5.0
10.688783039999999 16.342415381988946 5.0
23.242474799999997 6.321457795668384 5.0
1.8446524199999998 6.673482850208104 5.0
25.229560319999997 7.829296150402181 5.0
25.16116176 12.867439536189082 5.0
1.717897824 14.19317561157767 5.0
23.12372304 14.068547212077664 5.0
21.74396868 14.360776607305654 5.0
20.5493454 16.522707460394148 5.0
20.51026416 18.031588648278166 5.0
20.64207708 20.545583908100728 5.0
11.135060639999999 5.449629605986396 5.0
10.382063039999998 6.657840352954788 5.0
8.247470759999999 7.820225469604975 5.0
6.1930090799999995 8.910773155472953 5.0
1.7817390359999998 9.215221407045982 5.0
4.2765714 9.768100061537716 5.0
12.81596292 19.268644553703616 5.0
12.875492159999999 16.62547571593386 5.0
13.51058148 1.84355585993572 5.0
12.801393719999998 3.1528781350617727 5.0
3.86145144 13.057392578306708 5.0
6.72051636 12.785646000236836 5.0
8.14717332 12.741709275247333 5.0
10.2935232 13.904428885549478 5.0
11.04603516 15.04766915964938 5.0
21.905124479999998 6.168220350877409 5.0
23.76573912 7.6573073850044 5.0
0.34447723199999997 9.122960187397178 5.0
0.290295144 11.661668625270265 5.0
23.77026324 12.82236159756349 5.0
2.4100728479999995 13.019830908801575 5.0
20.69511408 13.402078448600534 5.0
19.21483224 15.871940222461852 5.0
19.08427176 18.200055392281804 5.0
19.08869364 0.9863902978677835 5.0
12.59486892 5.528707840528631 5.0
11.059300799999999 7.9181534052398845 5.0
8.917883999999999 9.05667141601803 5.0
6.73549452 10.278124176384514 5.0
2.351348748 10.608446495741331 5.0
3.6539298 10.829468095296676 5.0
14.237559 19.24613509853658 5.0
12.40891992 15.145931588936248 5.0
14.273061839999999 16.730093524607923 5.0
14.84634708 1.0315075886877254 5.0
13.422885119999998 4.378561256320662 5.0
4.48902612 11.858921499439438 5.0
5.96082204 11.62267060067143 5.0
10.96585344 12.73551130463753 5.0
21.425209919999997 7.468908754563518 5.0
22.673636999999996 8.798599725484078 5.0
25.164433439999996 10.31936527606118 5.0
1.6547186159999998 11.746315195312736 5.0
23.116949639999998 11.526454485490657 5.0
19.27244448 13.449379786206787 5.0
20.78370504 11.992463170959256 5.0
18.56910996 14.592777469084082 5.0
18.398343599999997 16.98452513716469 5.0
18.40711068 19.41391317913913 5.0
17.9849106 2.1379653667305845 5.0
13.202302320000001 6.781484947596094 5.0
12.48659676 7.9676781418267995 5.0
10.31783076 9.11684092117607 5.0
14.945392079999998 18.028558529313372 5.0
13.08636216 14.037478654639946 5.0
15.0303024 15.514582945587982 5.0
16.18275168 1.8320512459180924 5.0
14.857184519999999 4.522964133480518 5.0
10.2879 11.523503070914558 5.0
12.3881652 12.78481960415553 5.0
20.01480912 7.324053327168659 5.0
21.4766622 9.82661677453314 5.0
23.753240279999996 10.254591564164432 5.0
21.808226519999998 11.163450168727854 5.0
18.608319 12.163822301247468 5.0
17.155846439999998 14.478380640114548 5.0
17.03504988 16.89431023162198 5.0
16.99540632 19.332965715365365 5.0
17.3147274 3.6273278662180113 5.0
13.1695344 9.19639138205048 5.0
10.9904166 10.331544780211876 5.0
16.311778559999997 18.081329821933995 5.0
14.413692959999999 14.176057407036305 5.0
16.40251656 15.627287630200556 5.0
15.822100079999998 3.387259804598252 5.0
15.402711599999998 5.828335448294036 5.0
13.09850316 11.620388173399249 5.0
19.30769172 8.439550304253247 5.0
20.03224104 9.653978697928617 5.0
17.23469904 12.078467391706733 5.0
19.09480248 10.75591884406033 5.0
16.50723588 13.188396033291083 5.0
17.81920512 5.009554016593105 5.0
14.619016440000001 9.24524713133348 5.0
12.424715999999998 10.37825583490291 5.0
15.14833848 13.039782471335995 5.0
16.845854759999998 6.138096246104041 5.0
14.495382719999998 11.715089229097625 5.0
17.85910428 8.541393783225779 5.0
16.65801432 10.772781259338434 5.0
17.79822036 9.965392287901237 5.0
15.33635784 7.9973496963651645 5.0
15.265709999999999 10.539245661980436 5.0
16.758950759999998 7.615790819967297 5.0
