N=153, ave_E=-6.502377973856209 
1
24.418633408753863 0 0
0 16.44778866708493 0
0 0 20
C
153
C
6.78022426407505 0.667092702317364 8.864361584285831
6.245553866956976 1.99123508719197 8.752070263046985
5.9994872980969625 15.878119506600443 9.004109537925604
8.12896306177416 0.3590058832364627 9.445937768711229
6.701181147730913 3.170886938183968 9.481132700431825
6.806669644056731 14.89309433890606 9.782295845806459
4.701075303853294 15.656633584409477 8.389459289000555
8.15130611134317 15.49824137954545 9.993752039808555
9.336391227936813 1.159842134321361 9.302177363572365
8.104568846998816 3.2120722010063485 10.058696433358133
5.742285832402558 4.251555996977449 9.807402328043633
6.236714321663007 14.003367658748768 10.671741701683544
3.5580390739895256 15.15456483534671 9.068136799703954
9.383055236380942 14.781167137026548 9.992605625094534
9.315366784571875 2.601628972416159 9.437511620563136
10.616000874455743 0.4481874381682639 9.298164912073275
8.293105115547803 4.039165701919381 11.254636263030068
4.429662193514995 4.319748528791183 9.205935848329883
6.077065296436574 5.234377160990443 10.821234180392533
6.825520829048289 12.65749445548721 10.803464752325127
4.870076665675279 14.187138801526107 11.135753057185571
3.2635747737133625 13.719906468860227 9.2728291468933
9.355706366963137 13.334271615771753 10.10931064298238
10.68207769645983 15.470181452079402 9.534440984634035
10.50829028248973 3.4214689985270073 9.55742659965026
7.298338827741989 5.051165243027783 11.623495197267939
9.588953153283553 4.682899254771751 11.483345998478256
3.6791554956969446 3.1247015476067936 8.881099239110611
3.822273106105651 5.646492953832921 8.914689190231574
5.476464589114864 6.556318831741392 10.760760804227658
8.275572536760318 12.486009810844182 10.80117192289708
5.869799936063071 11.469651605739003 10.907501887622988
3.9417778980080924 13.089544968194195 11.21691921893861
2.5392448509094967 13.17110955219427 10.488086064496578
10.536884502211379 12.63446755135329 9.651489926936094
11.779866198617176 14.658285707894755 8.963182532634875
11.821524387212511 3.271958599543205 8.971035473425953
10.646719515283955 4.45134728591653 10.553660986138862
8.020080375404527 6.278663711252331 12.213440209105723
9.514305390952995 6.002127040392632 12.105046697894565
2.30672329800132 3.2422209976331153 8.328985912835684
4.29826552714249 6.886985175104467 9.75409404384142
2.635332173372943 5.693665211730121 8.034013406916792
6.143947933343151 7.689505679748875 11.348412986637396
8.790830120318434 11.123606579972202 11.203219563106
6.4163377890178 10.134008927028372 10.975369638693333
4.499426229163804 11.68774928346455 11.250623811530978
2.1826278030180326 11.606365625139812 10.628693829171866
1.2376706436393938 13.868232627059998 10.651679444188083
11.506108899471638 13.229647232060426 8.826529898722974
11.092090970026216 11.543765341472888 10.366279501131313
13.204986481618871 15.164943389995639 8.746280868741152
12.722449866828484 4.212179990908448 9.679405125222626
11.888138419151591 5.329428931697525 10.533828011586213
7.490708821736152 7.571657273949212 11.90522661323983
10.431713448119876 7.081430932726745 11.801877326770384
1.7673645232687645 4.50731911075062 7.941898984644798
4.448220354905647 8.653115826598713 9.80241542403762
2.199645148640593 6.907413328628986 7.606515360056488
5.604589158610596 8.901707704513035 10.826049122191442
7.857696463236314 9.980830671171809 11.325140767942667
10.234557401977597 10.8482705976852 11.22838336607887
3.380393515940841 10.787463122982988 10.834589911810937
1.0193241074249986 10.985362916225354 9.8280951136318
0.16101280590231165 13.327495126840914 9.872174759386098
12.529860105133643 12.222828744382157 8.642014450500486
12.393091339411214 10.719550203576594 9.65320954900713
14.269956340474852 14.036855356474954 8.479796768465803
14.109037546311166 16.29814668579179 9.395438200558385
14.003597887252164 3.7162298192298358 10.188355937514476
11.71376495797968 6.820371631002773 11.047880369355475
8.374907537467129 8.698857126881876 11.789954613744516
9.85926742511846 8.456334482985708 11.779923484996786
0.4276093408007341 4.712011840712491 7.468429707752055
3.4080598275929592 9.776582031503947 9.781436034770941
1.1502885639861682 7.597940840239213 8.198294635436717
10.724444025424017 9.525144686150222 11.343540724102784
2.0852536185739448 9.757387462129461 9.173091066773036
-0.0746821926036669 10.005453010806434 10.478226897955949
0.40207721770854116 12.111115363755315 9.085848907035658
23.181878463867296 13.738739186884038 10.128398447970916
13.89906171762929 12.649451486829005 8.589394015126693
11.812880190985812 9.3185275649143 10.408180958928963
13.979716463778402 10.630814383717672 9.85423336911159
15.637106787764163 14.398591572630151 8.892620706986573
13.669892843088135 1.2845574918895326 9.541204831446787
15.642723073448177 15.773314197213777 9.369529228021396
14.509649646015179 2.445259845558182 9.752489063241786
14.89512219300577 4.627733371582349 10.927678786589848
12.553814784507631 8.081012393391498 10.522535826653058
23.86469670987628 5.637709834684698 8.145330275648718
24.260791362399676 6.93757857304442 8.629002643496293
1.390182102320448 8.495249950972031 9.316507547497693
0.3127514148359786 8.621618311301246 10.239486033760034
22.792303586464037 10.289243156468318 10.601810404127956
22.080769027566358 12.781971320119709 9.86690125170158
22.65470458720571 15.12482723343662 9.936144700428752
14.742603408734691 11.698210077056816 9.208801885114948
14.678675426470576 9.507348178812435 10.347420979085584
16.668891723817648 13.34162377730594 9.282172426812611
16.778677899623407 0.18886502292753612 8.961978797185147
15.908617572636098 2.3843536841239668 9.506239182668995
14.29117613290706 5.859524712649006 11.38916802972102
16.37830998625348 4.607946681815846 10.62926703652888
14.0452560758475 8.219173818195012 10.560310191480212
22.456156678959132 5.296928101291367 8.171640493335612
23.758622166348655 7.49859619669002 9.951965223482311
21.872307154155827 11.55835453002059 10.683320490295202
22.03762130233309 9.049491085686793 10.843990512465947
20.753201185032637 13.609459567960752 9.508532012097046
21.252611075508472 15.10602741099014 9.516384952888128
22.938351432881795 16.34357547809028 10.79985354597595
16.144037617329893 12.005767277342636 9.571642142104182
16.16196089425192 9.58710350605913 10.325123212897779
18.096966661461803 13.634887849240066 8.962494683806458
18.17361675173188 16.208358207458172 8.88018210733939
16.551316003954497 1.5256705602969307 8.538894446973845
16.82937098257998 3.4888555886960537 9.869881929958048
14.822330246814273 7.097385287733817 10.90927883042973
17.06176311673109 5.938424754885013 10.73513843536918
21.76823493856772 4.624855008565609 9.318628414718642
22.36688215521673 7.757435046943936 10.256452971527619
20.548060245765697 11.374517596088584 11.303358888376177
20.9600758472716 8.956100541635085 11.817697849823947
19.343611152878914 13.056961898844701 9.739649218444693
20.58207540210409 16.541870018260653 9.797027274881692
-0.28289230990375436 0.11888593230878322 11.61128588056356
21.874724598863292 0.9070922554320003 10.567876528592784
16.874350105318904 10.907877383814718 10.236734638446372
16.868660563734664 8.431136470747733 10.872306955902392
18.292755264133188 14.890035050213982 8.26404151928611
19.089657365427872 16.31321286021084 10.120144262029925
18.85533615923747 0.9800299742761885 8.140458013114106
17.879958266358205 2.1766674566246853 8.134152732186962
18.02744681214708 3.3710565262623917 9.05948136861306
16.261369150858958 7.127566979937918 10.849550623828975
18.54988347392737 6.08541864220275 10.950320477191863
20.61911846898517 3.696640502927338 8.763534410187244
20.972724699377334 5.556589340978636 10.259261687576984
22.53607886610598 3.536208772268591 10.05187526580968
21.43137989069396 6.732852947505215 10.91902335549895
20.11978183440956 10.114419610725873 11.97355293019578
19.27682619050597 12.024155905072437 10.720808251443856
20.469481083456326 7.586443835960921 11.700247662371979
20.247491287137343 1.0806591901202807 8.614959063249472
22.169042387339005 2.1377026452723613 9.668514185439378
18.090593398142115 11.109724646337183 11.040256711507208
18.149051606522672 8.601354635663396 11.464086231282618
19.303418082288104 4.057504986283181 9.32481905417438
19.533807888499695 5.205675769766378 10.28740616880632
19.056496861258783 7.389909209177923 11.465920494825063
21.074452726158203 2.2967527616830727 8.656631238104318
18.671219663335467 9.916174413921498 11.789782651537415
