N=110, ave_E=-6.371359727272727 
1
20.70876231503562 0 0
0 14.347451396603633 0
0 0 20
C
110
C
2.154249708583895 0.7084298033746786 8.687997821894474
3.6762401949274386 0.6267511973189538 8.662797299866032
1.4071210526582718 1.9047532999617016 9.2074085814806
1.77269904643429 13.781128795076896 9.09324788331011
4.427616218003876 1.7818386838469984 9.089572807180964
4.280356209181657 13.421438188564041 8.818083849957937
-0.054330887546858005 1.7142191454148055 9.663584697828703
2.2310170904857323 3.157457976301958 9.436779999572767
2.876012201549832 12.8386590602854 9.25862630912173
0.5029164345731031 13.218134802274168 8.802450192773623
5.816780702858781 1.617302111230748 9.476505822492598
3.773944135529777 3.100312077389286 9.301268859128186
4.406886746926525 12.317301371435615 7.7671870806470515
5.4876977609105495 13.360561952288252 9.89313111954607
20.08049988392207 0.4705763193766439 10.390666425982513
19.627868466002337 2.7097314080195454 9.298060459332895
1.639179301408098 4.49399481115257 9.725594315690348
2.1558857008067833 11.531347983929669 8.878168427942402
0.6481428429359849 11.717764419925741 8.684731087557452
20.209556890669372 13.485815202980602 9.748578125132951
6.299874710143931 0.36003781483665087 10.066034701241186
6.613716003028296 2.862359595976615 9.586991444533943
4.570030376444375 4.3158425071609425 9.48123092037293
4.972090996790793 11.022070849155826 8.138253100607443
6.541152499876411 12.245664546612375 9.580924652193758
4.905553743472583 12.932921815961084 11.24935088028483
18.877445045992392 0.6506583555811144 11.257167708876985
18.349060975524257 2.7191720310385104 9.993058189533834
20.115518400996795 3.929020870057111 8.827709049343795
0.2632477156725013 4.8035123801315 9.572932819976408
2.499195562465444 5.6621212615098475 9.97491614705503
2.734364267314988 10.282086695924598 9.190666568003376
20.37856109992238 10.84691716250609 9.717719152556462
19.786476876573193 12.304403012630068 10.419192016889706
7.745553407356568 0.32528254857351824 10.482659998294658
7.983145037396972 2.7845533670528333 9.992358175033043
6.03177907321348 4.215094703453992 9.382878883011944
3.897927495509895 5.561703449185019 9.739011260288823
4.167866212286384 10.008595577402538 8.937961333218208
6.310187673776819 11.165057549774378 8.5701037130531
7.776409463205971 12.215405771616936 10.30678135497119
18.015960533686908 1.84819564655629 11.077030644007042
18.301844997445976 13.86022629462637 11.879713938246162
20.365245365753808 5.821277539852371 10.458976174351264
1.901685643389721 6.882931553395454 10.59355396212813
1.9128725167923033 9.36386415399336 10.03202566341114
0.5323497984514632 9.824646903046682 10.560186604257144
19.190582240958044 10.210349438941579 9.102464740903844
18.683217564239673 12.432037940254254 11.371620079756138
8.525031220894508 1.557286722038755 10.429225558067692
8.437081107342552 13.470248218215287 10.650605143942506
8.834358003594195 3.997644730087067 10.01779203522841
6.888107103702518 5.333521582173435 9.085897731051816
4.838415936047237 9.035450991525103 9.843838431782114
7.359334990181154 10.092470778267083 8.345224054674336
8.529939197563172 10.982701442523545 10.362082500533589
16.710169525912338 1.8873928837718112 11.657517668787094
16.837921880633793 13.798187914787457 12.163336480149553
19.00952553203769 5.7124377735577365 10.902260356976488
0.48875164114961867 6.8381818524894475 11.013037651726496
2.5931719258510753 8.16250900620155 10.561761636883922
20.64760933991932 9.185826629612906 11.745252819552764
18.321249107735163 9.251939685648455 9.79862916193943
17.372394327222548 11.629498898933834 11.264401192051814
9.69194926858445 13.420103875584157 11.271167998892782
8.31982809511482 5.1652546721940675 9.270526555635161
9.911006556352898 4.116082941366029 10.965670003839708
6.416030157968966 6.618981490052137 8.528161177547439
4.0449597079466475 8.204561386244995 10.633279785047957
6.297120444756032 9.029855485480429 9.9628408969164
8.583098590425868 10.137507428201022 9.19883340384592
7.024950605080274 8.878375093635087 7.6371010525835885
16.03692766305053 0.670011632769993 12.046667396684562
15.93338385147535 3.1347172658383418 11.536590163775628
16.252360917413846 12.49175203296692 11.788828722226938
18.134911664424475 6.83905704702464 11.076680636756642
-0.022033916015574747 7.773721768256385 11.975265917603991
16.89087418587334 9.09410337283442 9.577832921481939
10.657371058949096 12.389110365675617 11.045296653304565
9.234886175529299 5.927391290381652 8.47886848978348
11.279503696417397 4.725031820992077 10.721889953939616
7.373271987219172 7.5794429288949745 8.082076936919051
9.93018287025662 9.690039114043747 8.66781407045503
14.579113631121283 0.5882655936927043 12.008574940933244
14.48484734506324 3.1399971279522916 11.613183417070395
16.59873567589513 4.451655482081192 11.423537821898055
14.842011368710658 12.488236907374752 11.326819151705582
16.700415698861956 6.8921282697406765 10.779991157505183
16.10387909161504 7.923494813385529 9.939040403889543
12.015617361667653 12.639143401164228 10.57622860323358
10.660684460919502 5.6205853897166795 8.463293167140904
8.745186073065652 7.13792880706729 7.897973123211301
12.320885226953594 4.471727566585041 11.658334352371348
11.506658110251022 5.660485652050635 9.630625681749844
10.482174929763897 8.348753272780861 8.961061811744276
10.970756759062532 10.767819662956612 8.50879410969225
13.83865112578487 1.865584757648974 11.85363839809174
13.997901507987493 13.659849788421404 11.636983910097257
13.733429904462174 4.396417794204268 11.313285538023642
15.928993593864563 5.678348229039407 11.123289935600912
14.331436833833456 11.508506841306275 10.378124499510026
14.727616165682402 7.7521145064531 9.512789907450205
12.92479415358466 11.629111517746125 9.933031946091099
12.395705985197818 6.83086465227718 9.733644482449431
11.898799233448537 8.11688411076035 9.295902081288794
12.318400175475789 10.623914725448678 9.050838671470586
14.44063413752064 5.623512269801587 10.867201297395262
15.198885469685669 10.535276170720461 9.715269101803695
13.881352593678473 6.694334304787099 9.972291092677064
12.817895522514448 9.2318962960474 9.09184785430853
