N=96, ave_E=-5.793647812500001 
1
17.04 0 0
0 14.757072880486835 0
0 0 10
C
96
C
1.9469904 0.5691921066586816 5.0
3.2496983999999998 0.9365104077268793 5.0
1.241188488 1.7621125585131718 5.0
1.488609288 13.999149617345031 5.0
3.4400352 2.323973351364828 5.0
4.96975008 15.379231073128159 5.0
3.9399888 14.433671628310965 5.0
-0.0843834432 1.7275367367541914 5.0
2.1437171999999998 2.9120869768708695 5.0
2.38686096 12.86638194596598 5.0
0.1623700704 13.842636102374588 5.0
4.78229304 2.7106972032708656 5.0
6.09713352 14.62598580208947 5.0
3.70073016 13.167042548833019 5.0
16.37266248 0.37064454529545954 5.0
16.21350888 2.936022949083019 5.0
1.9582538399999998 4.274592758853338 5.0
2.02321032 11.548413009936821 5.0
16.732428 12.474773502936502 5.0
5.24913792 3.9654173249342586 5.0
7.0550711999999995 0.8515701719340852 5.0
6.20271336 13.116883258112246 5.0
4.77280176 12.332205421838118 5.0
15.02576976 0.3119586178643395 5.0
14.861061119999999 2.9782576916669723 5.0
-0.410393064 4.271774157933165 5.0
2.96056368 5.139799941836282 5.0
0.745046736 4.928537686479232 5.0
3.0720563999999997 10.597304905716564 5.0
17.7168288 11.186215413158152 5.0
15.394907279999998 12.377273522415125 5.0
4.4056579199999995 5.022791110966901 5.0
6.62884968 4.104871663654859 5.0
8.288375279999999 15.304117572166481 5.0
7.69178784 12.885994095824147 5.0
4.4006140799999995 10.988455879486748 5.0
14.339994959999999 1.6213595973790884 5.0
14.45644632 13.664193577103742 5.0
14.55331872 4.574692592950918 5.0
15.723199919999999 5.496744020669497 5.0
2.56797912 6.50322066233734 5.0
0.175694328 6.559563166595039 5.0
2.84801448 9.261494668574896 5.0
0.506822424 9.673098945357435 5.0
14.78591472 11.128530015268328 5.0
4.83769008 6.341527414785847 5.0
7.3713165599999995 2.9282164575292415 5.0
7.31658408 5.3347113604417515 5.0
9.18554832 1.4981675529727845 5.0
8.62031448 14.020562130094618 5.0
8.49055488 11.55170383718917 5.0
5.41532904 10.105909135869233 5.0
13.060716959999999 1.5516766992374298 5.0
13.24456152 12.820723562473756 5.0
13.288609919999999 5.070958196848811 5.0
3.73102728 7.101516668130918 5.0
1.4200812239999998 7.275960026651154 5.0
16.15998624 7.634645440084267 5.0
3.9026712 8.400788392820502 5.0
1.5796932 8.757171702884259 5.0
-0.6782107439999999 9.08579695885982 5.0
15.18320232 9.785518326560984 5.0
13.498798319999999 11.458188266345525 5.0
5.82134112 7.29678225648552 5.0
8.778786479999999 2.864952886090595 5.0
8.7279732 5.317725969556311 5.0
7.03416312 6.807968974392274 5.0
10.5125724 15.957413188585633 5.0
9.899541359999999 13.670627660879633 5.0
7.77412512 10.271203109203567 5.0
10.0656132 10.660907889831464 5.0
9.93888672 12.276128544892268 5.0
6.53233512 10.793765816974485 5.0
5.2881936 8.721016874327066 5.0
12.57579264 0.2560352144764466 5.0
12.34316256 2.737835460298081 5.0
11.896049999999999 13.029181973983512 5.0
12.28791888 4.156993645068739 5.0
12.82181616 6.58231857297675 5.0
14.723786879999999 7.396407255501686 5.0
14.2464624 8.802638244429039 5.0
12.49302936 10.521512579402383 5.0
9.59631456 4.169360072142586 5.0
9.138125999999998 6.638498749432763 5.0
8.15016384 7.607049713797755 5.0
11.0489064 2.4638113739803207 5.0
11.136883919999999 14.57840899912278 5.0
8.45741208 8.99492290406178 5.0
9.81394944 9.280914976485617 5.0
11.36886648 11.536872978944281 5.0
11.02331232 4.703728438217896 5.0
11.35278072 6.06821166796635 5.0
12.16581024 8.090889862330277 5.0
12.95246184 9.141608208493821 5.0
10.388487119999999 6.973292461872368 5.0
10.776147120000001 8.254575314720638 5.0
