N=252, ave_E=-6.374817063492063 
1
29.82 0 0
0 22.13560932073025 0
0 0 10
C
252
C
2.375070558 0.8163568446266675 10.0
3.67826718 1.0361988621564322 10.0
1.698913986 1.991186600836969 10.0
1.870856106 21.521368297689307 10.0
4.51978758 2.0494143211551497 10.0
4.27347438 22.100280888254364 10.0
0.348473538 1.9869675537004376 10.0
2.43459426 3.1879040475436087 10.0
2.5943131619999997 20.18411186740535 10.0
0.513050118 21.45664377603549 10.0
5.9850231 1.8800702691687672 10.0
3.8882894400000003 3.2271283472599426 10.0
4.904674320000001 21.04432378121825 10.0
29.61600138 0.6488699702622941 10.0
29.396466540000002 3.1908480835832655 10.0
1.7595529559999998 4.336055967400566 10.0
1.842020166 18.972895596593634 10.0
4.03112724 20.029029788504314 10.0
29.621160240000002 20.193320280882777 10.0
6.77173434 0.5430418356608149 10.0
6.723724140000001 3.080479935510105 10.0
4.62785526 4.385307698139191 10.0
6.2171718 21.316304012942062 10.0
28.10591658 1.055842001867648 10.0
28.263813480000003 21.795628497173155 10.0
27.980106 3.2449253771538094 10.0
2.386154652 5.582534263860207 10.0
2.51791134 17.74368307540416 10.0
0.455029344 18.990714762096818 10.0
4.65567732 18.86766290988288 10.0
28.18532724 20.178998541652263 10.0
8.173393619999999 0.5863457281749594 10.0
8.11601994 3.0601594461536745 10.0
6.05134278 4.3288840299806495 10.0
3.97330626 5.608277977500215 10.0
6.8997516 20.191106719950703 10.0
27.26675196 2.069761373242765 10.0
26.98012212 21.24918884548161 10.0
27.3295827 4.413729820507008 10.0
1.1771325719999999 6.456470255451958 10.0
1.804306812 16.55095003837525 10.0
3.93343692 17.705676234200467 10.0
29.54497014 17.778568795693634 10.0
6.1103267400000005 18.94195001476325 10.0
27.405057120000002 19.03157709690289 10.0
8.84365776 1.799791054845275 10.0
8.913108540000001 21.504655912652154 10.0
8.79269538 4.297473600354533 10.0
6.7955307000000005 5.5389713847170094 10.0
4.82186418 6.788017411857855 10.0
8.257038719999999 20.254591647482556 10.0
25.86464538 1.9355288247609248 10.0
25.6961922 21.534184815486007 10.0
25.894525020000003 4.376032877833805 10.0
28.084774200000002 5.631188333147172 10.0
29.62977822 5.639334237377201 10.0
1.643949762 7.84787038613442 10.0
2.489621106 15.348920045431639 10.0
0.422722356 16.549466952550762 10.0
4.6240383000000005 16.518698455594947 10.0
28.138658940000003 17.776842218166614 10.0
6.772837679999999 17.792425687128407 10.0
25.93576608 19.147855452664686 10.0
10.24463118 1.7573216748025218 10.0
10.306954979999999 21.520084432348703 10.0
10.1322396 4.301767908562755 10.0
8.154338639999999 5.531268192673395 10.0
6.1590228 6.750851723808349 10.0
4.23539424 7.986240079998305 10.0
8.94939948 19.082754625652417 10.0
25.1232009 0.6625608446271658 10.0
25.16918334 3.129333225280956 10.0
25.07477322 20.3450820183857 10.0
25.1955144 5.564538013482453 10.0
27.341838720000002 6.818409603455218 10.0
1.5239660099999999 9.304636971140999 10.0
2.9601568499999997 7.78146355817223 10.0
1.79152596 14.145074932523723 10.0
3.9155449200000003 15.330082641899697 10.0
29.54783286 15.327714131702379 10.0
6.0488379 16.566290015634518 10.0
27.483543360000002 16.546102339934013 10.0
8.14470678 17.829879138099084 10.0
25.293264360000002 17.968824357805307 10.0
10.97709984 0.5709991102328972 10.0
10.92169428 2.919266292827226 10.0
11.0183409 20.327882649943493 10.0
10.93818474 5.705032725841128 10.0
11.7381957 4.318148259460095 10.0
8.888417579999999 6.812477260157262 10.0
6.85224834 7.99976493729327 10.0
4.77427146 9.218418772836754 10.0
10.36695282 19.151153658453474 10.0
23.7429822 0.6586096383634154 10.0
23.76785208 3.1063343271967176 10.0
23.70075708 20.333925671288053 10.0
23.77805052 5.549109493785904 10.0
25.90937538 6.787065580657065 10.0
27.99761034 8.045807004680391 10.0
0.17686331460000002 9.380672789157707 10.0
2.418393054 10.458522013812024 10.0
2.4608239320000003 12.916659293269799 10.0
4.60468512 14.118512201338849 10.0
28.163797199999998 15.288445560767402 10.0
26.12795598 16.57113771407576 10.0
8.67111924 16.535322298194817 10.0
23.690677920000002 17.984297148720497 10.0
24.504585 16.57996982219473 10.0
12.405984779999999 0.5563741131546907 10.0
12.5179887 2.9279213160716315 10.0
12.40300278 20.29678211884787 10.0
12.54622824 5.7055639804648255 10.0
10.27215504 6.867218622007429 10.0
13.3621929 4.314340934656929 10.0
8.21230872 8.011939522419672 10.0
6.1417272 9.239602550956691 10.0
3.9348384599999995 10.428129822214663 10.0
11.07598296 17.999703532807725 10.0
23.0629371 1.8724113483437945 10.0
23.03761992 21.552845134143386 10.0
23.06922912 4.320494634048092 10.0
23.000583480000003 19.141303312305748 10.0
23.07134634 6.766191701067616 10.0
25.19590206 7.999565716809385 10.0
29.3567463 8.129833777661881 10.0
27.28971336 9.253725069703318 10.0
29.36050362 10.557667407959576 10.0
1.730403906 11.728508327370282 10.0
3.89043648 12.898685178501365 10.0
6.01132434 14.072447998342408 10.0
27.42840618 14.042122213573009 10.0
25.32782574 15.181132126780502 10.0
7.90814472 15.246564987932581 10.0
10.2449592 16.974736278820632 10.0
10.04447934 15.57025400302962 10.0
22.89099498 16.592476441460942 10.0
23.700339600000003 15.197977325473579 10.0
13.15440714 1.7524761899222139 10.0
13.0787538 21.46602927438748 10.0
13.13090898 19.060840372424895 10.0
13.211721180000001 6.874302016990062 10.0
11.005399019999999 8.061102710721014 10.0
14.720762279999999 4.307168997237013 10.0
8.903506499999999 9.233692343268059 10.0
6.79072968 10.43837860933016 10.0
4.6158079800000005 11.661238210644582 10.0
12.458080319999999 17.88426633020012 10.0
21.68304642 1.8642211728951241 10.0
21.67744026 21.538921835880647 10.0
21.66876264 4.313853951251874 10.0
21.633485580000002 19.089284630402034 10.0
21.65519454 6.764022411354184 10.0
23.77992918 7.991309134532752 10.0
25.891811399999998 9.2294644418878 10.0
27.9894993 10.516517310232338 10.0
0.2817873702 11.78276270581539 10.0
6.70997712 12.840778424518334 10.0
25.997672400000003 13.997009841777357 10.0
8.6735943 14.013235243409456 10.0
10.13554962 13.999422623193318 10.0
11.42645742 14.985940323790304 10.0
21.54515874 16.588381353736608 10.0
23.0207418 14.036344819540297 10.0
14.507579100000001 1.7830166901020255 10.0
14.43881418 21.43174121554967 10.0
14.52126648 19.032041944698623 10.0
14.61704832 6.826621914513209 10.0
12.4646109 8.066614477441878 10.0
10.3110105 9.250935982928906 10.0
15.335829599999999 3.019385653784889 10.0
15.362309759999999 5.550282681079903 10.0
8.18517252 10.436740574240426 10.0
6.03544872 11.654398307364476 10.0
13.21825176 16.63488826891946 10.0
20.99265378 0.6316307577233093 10.0
20.98182912 3.0901310611739428 10.0
20.97905586 20.290584148238064 10.0
20.95305282 5.537178400362031 10.0
20.892398940000003 17.822043132399546 10.0
20.9451207 7.991154185267507 10.0
23.071286699999998 9.213836701707363 10.0
25.18650876 10.439020542000462 10.0
27.27182136 11.680341241488373 10.0
29.41486548 13.0537672574024 10.0
8.078864220000002 12.825261362384502 10.0
25.22139816 12.834049199284832 10.0
10.95175284 12.839406016740451 10.0
12.74676774 15.332362609659732 10.0
20.8801131 15.350735165395939 10.0
23.76188808 12.844098765916446 10.0
21.6121941 14.085220244920468 10.0
15.11817342 0.522617308940577 10.0
15.16815174 20.211050903948678 10.0
15.270523800000001 17.812878990140764 10.0
15.30249084 8.028762585503427 10.0
13.15697166 9.265434807033985 10.0
11.008440660000002 10.454028485119917 10.0
16.7300637 5.5491537650045455 10.0
8.84607318 11.627968389835527 10.0
14.59170132 16.624949380334453 10.0
19.62030756 0.6191285655789609 10.0
19.60378728 3.0894227216756796 10.0
19.63775226 20.285824992234105 10.0
19.5444753 5.533304668730903 10.0
19.51295556 17.819165503187854 10.0
19.5294162 7.993168525715693 10.0
21.65257038 9.216072398248757 10.0
23.77405464 10.432711893344052 10.0
25.8900222 11.657253800966851 10.0
10.281458879999999 11.641803145660981 10.0
12.38373906 12.89036218939677 10.0
19.49232012 15.351664860987409 10.0
23.064219360000003 11.645234165105695 10.0
20.919803520000002 12.88518245681572 10.0
16.5870768 1.2770232237613168 10.0
16.472568 21.936632328546207 10.0
16.619520960000003 20.18327071425116 10.0
16.69377276 17.797206978741684 10.0
16.706655 8.013975998477179 10.0
14.578640159999999 9.257266767194636 10.0
12.4422459 10.470386700407937 10.0
17.44586298 4.320383956001488 10.0
17.41962138 6.773629265799381 10.0
15.27183588 15.385753699341334 10.0
18.91792728 1.8985911334874221 10.0
19.008848460000003 21.48568569546429 10.0
18.86210424 4.30101529784585 10.0
18.84624 19.039302424555824 10.0
18.82667808 6.766811498128597 10.0
18.79593366 16.58351151968605 10.0
18.81871614 9.225147998070256 10.0
20.94061788 10.44260651071042 10.0
13.14367194 11.695327048998506 10.0
18.7959933 14.12982349770174 10.0
21.641477339999998 11.656811088780437 10.0
19.510331400000002 12.896825787318425 10.0
17.5608489 2.201824632011174 10.0
17.71281162 21.280355783405195 10.0
17.397375659999998 19.00344273745624 10.0
17.391381839999998 16.58085524656756 10.0
17.406112919999998 9.231213155024136 10.0
15.275831759999999 10.470563785282502 10.0
14.5690083 14.152689582130055 10.0
16.68333576 15.364525650002752 10.0
19.52398896 10.44809614182196 10.0
14.55728904 11.699067966973711 10.0
17.38506 14.132590448866832 10.0
18.80988942 11.677994866900375 10.0
16.692430859999998 10.4620194400847 10.0
15.255524340000001 12.91216576457769 10.0
16.67916096 12.90791572758811 10.0
17.39439366 11.681027445377316 10.0
